*SPEF "ieee 1481-1999"
*DESIGN "ZeroToFiveCounter"
*DATE "20:09:14 Monday May 26, 2025"
*VENDOR "The OpenROAD Project"
*PROGRAM "OpenROAD"
*VERSION "b16bda7e82721d10566ff7e2b68f1ff0be9f9e38"
*DESIGN_FLOW "NAME_SCOPE LOCAL" "PIN_CAP NONE"
*DIVIDER /
*DELIMITER :
*BUS_DELIMITER []
*T_UNIT 1 NS
*C_UNIT 1 PF
*R_UNIT 1 OHM
*L_UNIT 1 HENRY

*NAME_MAP
*3 clk
*4 count[0]
*5 count[1]
*6 count[2]
*7 count[3]
*8 rst
*9 _00_
*10 _01_
*11 _02_
*12 _03_
*13 _04_
*14 _05_
*15 _06_
*16 _07_
*17 _08_
*18 _09_
*19 _10_
*20 _11_
*21 _12_
*22 clknet_0_clk
*23 clknet_1_0__leaf_clk
*24 clknet_1_1__leaf_clk
*25 net1
*26 net2
*27 net3
*28 net4
*29 net5
*30 net6
*31 net7
*32 net8
*33 FILLER_0_0_15
*34 FILLER_0_0_27
*35 FILLER_0_0_29
*36 FILLER_0_0_3
*37 FILLER_0_0_41
*38 FILLER_0_0_53
*39 FILLER_0_0_57
*40 FILLER_0_1_15
*41 FILLER_0_1_23
*42 FILLER_0_1_3
*43 FILLER_0_1_31
*44 FILLER_0_1_40
*45 FILLER_0_1_52
*46 FILLER_0_1_57
*47 FILLER_0_2_27
*48 FILLER_0_2_29
*49 FILLER_0_2_3
*50 FILLER_0_2_50
*51 FILLER_0_2_58
*52 FILLER_0_3_11
*53 FILLER_0_3_25
*54 FILLER_0_3_3
*55 FILLER_0_3_34
*56 FILLER_0_3_40
*57 FILLER_0_3_44
*58 FILLER_0_3_57
*59 FILLER_0_4_23
*60 FILLER_0_4_27
*61 FILLER_0_4_29
*62 FILLER_0_4_41
*63 FILLER_0_4_45
*64 FILLER_0_4_56
*65 FILLER_0_5_15
*66 FILLER_0_5_3
*67 FILLER_0_5_57
*68 FILLER_0_6_14
*69 FILLER_0_6_20
*70 FILLER_0_6_37
*71 FILLER_0_6_48
*72 FILLER_0_6_7
*73 FILLER_0_7_3
*74 FILLER_0_7_57
*75 FILLER_0_8_15
*76 FILLER_0_8_27
*77 FILLER_0_8_3
*78 FILLER_0_8_35
*79 FILLER_0_8_43
*80 FILLER_0_8_52
*81 FILLER_0_8_58
*82 FILLER_0_9_15
*83 FILLER_0_9_27
*84 FILLER_0_9_29
*85 FILLER_0_9_3
*86 FILLER_0_9_37
*87 FILLER_0_9_49
*88 FILLER_0_9_55
*89 FILLER_0_9_57
*90 PHY_EDGE_ROW_0_Left_10
*91 PHY_EDGE_ROW_0_Right_0
*92 PHY_EDGE_ROW_1_Left_11
*93 PHY_EDGE_ROW_1_Right_1
*94 PHY_EDGE_ROW_2_Left_12
*95 PHY_EDGE_ROW_2_Right_2
*96 PHY_EDGE_ROW_3_Left_13
*97 PHY_EDGE_ROW_3_Right_3
*98 PHY_EDGE_ROW_4_Left_14
*99 PHY_EDGE_ROW_4_Right_4
*100 PHY_EDGE_ROW_5_Left_15
*101 PHY_EDGE_ROW_5_Right_5
*102 PHY_EDGE_ROW_6_Left_16
*103 PHY_EDGE_ROW_6_Right_6
*104 PHY_EDGE_ROW_7_Left_17
*105 PHY_EDGE_ROW_7_Right_7
*106 PHY_EDGE_ROW_8_Left_18
*107 PHY_EDGE_ROW_8_Right_8
*108 PHY_EDGE_ROW_9_Left_19
*109 PHY_EDGE_ROW_9_Right_9
*110 TAP_TAPCELL_ROW_0_20
*111 TAP_TAPCELL_ROW_0_21
*112 TAP_TAPCELL_ROW_1_22
*113 TAP_TAPCELL_ROW_2_23
*114 TAP_TAPCELL_ROW_3_24
*115 TAP_TAPCELL_ROW_4_25
*116 TAP_TAPCELL_ROW_5_26
*117 TAP_TAPCELL_ROW_6_27
*118 TAP_TAPCELL_ROW_7_28
*119 TAP_TAPCELL_ROW_8_29
*120 TAP_TAPCELL_ROW_9_30
*121 TAP_TAPCELL_ROW_9_31
*122 _13_
*123 _14_
*124 _15_
*125 _16_
*126 _17_
*127 _18_
*128 _19_
*129 _20_
*130 _21_
*131 _22_
*132 _23_
*133 _24_
*134 _25_
*135 _26_
*136 _27_
*137 _28_
*138 _29_
*139 clkbuf_0_clk
*140 clkbuf_1_0__f_clk
*141 clkbuf_1_1__f_clk
*142 clkload0
*143 hold1
*144 hold2
*145 hold3
*146 input1
*147 output2
*148 output3
*149 output4
*150 output5

*PORTS
clk I
count[0] O
count[1] O
count[2] O
count[3] O
rst I

*D_NET *3 0.00205031
*CONN
*P clk I
*I *139:A I *D sky130_fd_sc_hd__clkbuf_16
*CAP
1 clk 0.000799247
2 *139:A 0
3 *3:13 0.000799247
4 *3:13 count[0] 8.57785e-05
5 *3:13 *137:CLK 0.000366037
*RES
1 clk *3:13 34.9954 
2 *3:13 *139:A 23 
*END

*D_NET *4 0.000665847
*CONN
*P count[0] O
*I *147:X O *D sky130_fd_sc_hd__buf_2
*CAP
1 count[0] 0.000290034
2 *147:X 0.000290034
3 *3:13 count[0] 8.57785e-05
*RES
1 *147:X count[0] 48.0909 
*END

*D_NET *5 0.00171297
*CONN
*P count[1] O
*I *148:X O *D sky130_fd_sc_hd__buf_2
*CAP
1 count[1] 0.000766393
2 *148:X 0.000766393
3 count[1] *136:CLK 0.000123984
4 count[1] *8:13 5.62014e-05
5 count[1] *25:14 0
*RES
1 *148:X count[1] 49.8817 
*END

*D_NET *6 0.00123401
*CONN
*P count[2] O
*I *149:X O *D sky130_fd_sc_hd__clkbuf_4
*CAP
1 count[2] 0.000339355
2 *149:X 0.00027765
3 *6:12 0.000617005
*RES
1 *149:X *6:12 42.7539 
2 *6:12 count[2] 7.81964 
*END

*D_NET *7 0.000976816
*CONN
*P count[3] O
*I *150:X O *D sky130_fd_sc_hd__buf_2
*CAP
1 count[3] 0.000424192
2 *150:X 0.000424192
3 count[3] *143:A 4.94435e-05
4 count[3] *8:13 0
5 count[3] *29:14 7.89883e-05
*RES
1 *150:X count[3] 48.5734 
*END

*D_NET *8 0.001413
*CONN
*P rst I
*I *146:A I *D sky130_fd_sc_hd__clkbuf_2
*CAP
1 rst 0.000637584
2 *146:A 0
3 *8:13 0.000637584
4 *8:13 *122:C 5.68958e-05
5 *8:13 *138:CLK 0
6 *8:13 *24:8 0
7 *8:13 *29:14 2.47321e-05
8 count[1] *8:13 5.62014e-05
9 count[3] *8:13 0
*RES
1 rst *8:13 30.0891 
2 *8:13 *146:A 23 
*END

*D_NET *9 0.00045208
*CONN
*I *135:D I *D sky130_fd_sc_hd__dfrtp_2
*I *124:X O *D sky130_fd_sc_hd__clkbuf_1
*CAP
1 *135:D 0.000114601
2 *124:X 0.000111439
3 *9:8 0.00022604
4 *9:8 *135:CLK 0
*RES
1 *124:X *9:8 39.9057 
2 *9:8 *135:D 40.0507 
*END

*D_NET *10 0.000117562
*CONN
*I *145:A I *D sky130_fd_sc_hd__dlygate4sd3_1
*I *125:X O *D sky130_fd_sc_hd__xor2_1
*CAP
1 *145:A 5.87811e-05
2 *125:X 5.87811e-05
*RES
1 *125:X *145:A 47.0979 
*END

*D_NET *11 0.000500805
*CONN
*I *137:D I *D sky130_fd_sc_hd__dfrtp_1
*I *129:X O *D sky130_fd_sc_hd__clkbuf_1
*CAP
1 *137:D 0.000136634
2 *129:X 9.2098e-05
3 *11:8 0.000228732
4 *11:8 *137:CLK 0
5 *11:8 *15:8 0
6 *11:8 *21:14 4.334e-05
*RES
1 *129:X *11:8 39.9057 
2 *11:8 *137:D 40.0507 
*END

*D_NET *12 0.000341406
*CONN
*I *138:D I *D sky130_fd_sc_hd__dfrtp_1
*I *130:Y O *D sky130_fd_sc_hd__xnor2_1
*CAP
1 *138:D 0.000155062
2 *130:Y 0.000155062
3 *138:D *138:CLK 3.12831e-05
*RES
1 *130:Y *138:D 48.5479 
*END

*D_NET *13 0.000596592
*CONN
*I *135:RESET_B I *D sky130_fd_sc_hd__dfrtp_2
*I *131:Y O *D sky130_fd_sc_hd__inv_2
*CAP
1 *135:RESET_B 0
2 *131:Y 0.00026439
3 *13:10 0.00026439
4 *13:10 *123:A_N 5.44109e-05
5 *13:10 *25:24 1.34017e-05
*RES
1 *131:Y *13:10 42.1843 
2 *13:10 *135:RESET_B 15 
*END

*D_NET *14 0.000394066
*CONN
*I *136:RESET_B I *D sky130_fd_sc_hd__dfrtp_1
*I *132:Y O *D sky130_fd_sc_hd__inv_2
*CAP
1 *136:RESET_B 0
2 *132:Y 0.000184498
3 *14:10 0.000184498
4 *14:10 *25:16 1.94812e-05
5 *14:10 *27:23 0
6 *14:10 *32:10 5.58975e-06
*RES
1 *132:Y *14:10 41.2314 
2 *14:10 *136:RESET_B 15 
*END

*D_NET *15 0.000366199
*CONN
*I *137:RESET_B I *D sky130_fd_sc_hd__dfrtp_1
*I *133:Y O *D sky130_fd_sc_hd__inv_2
*CAP
1 *137:RESET_B 0
2 *133:Y 0.0001831
3 *15:8 0.0001831
4 *15:8 *17:25 0
5 *15:8 *19:8 0
6 *11:8 *15:8 0
*RES
1 *133:Y *15:8 40.61 
2 *15:8 *137:RESET_B 15 
*END

*D_NET *16 0.000307367
*CONN
*I *138:RESET_B I *D sky130_fd_sc_hd__dfrtp_1
*I *134:Y O *D sky130_fd_sc_hd__inv_2
*CAP
1 *138:RESET_B 0
2 *134:Y 0.000153684
3 *16:8 0.000153684
*RES
1 *134:Y *16:8 40.61 
2 *16:8 *138:RESET_B 15 
*END

*D_NET *17 0.00299915
*CONN
*I *128:A I *D sky130_fd_sc_hd__and3_1
*I *123:B I *D sky130_fd_sc_hd__and2b_1
*I *122:X O *D sky130_fd_sc_hd__or4b_1
*CAP
1 *128:A 0
2 *123:B 0
3 *122:X 3.6054e-05
4 *17:25 0.000219772
5 *17:14 0.00062982
6 *17:6 0.000885646
7 *17:6 *26:54 5.53483e-05
8 *17:14 *147:A 0.000360771
9 *17:14 *25:24 0.000573972
10 *17:14 *26:10 0
11 *17:14 *26:30 0
12 *17:14 *26:54 8.43466e-05
13 *17:25 *19:8 8.62783e-05
14 *17:25 *25:24 0
15 *17:25 *26:30 1.58805e-05
16 *17:25 *26:54 5.12605e-05
17 *15:8 *17:25 0
*RES
1 *122:X *17:6 23.6214 
2 *17:6 *17:14 43.1536 
3 *17:14 *123:B 23 
4 *17:6 *17:25 34.3707 
5 *17:25 *128:A 23 
*END

*D_NET *18 0.000112656
*CONN
*I *124:A I *D sky130_fd_sc_hd__clkbuf_1
*I *123:X O *D sky130_fd_sc_hd__and2b_1
*CAP
1 *124:A 5.63279e-05
2 *123:X 5.63279e-05
*RES
1 *123:X *124:A 47.1186 
*END

*D_NET *19 0.000657099
*CONN
*I *130:B I *D sky130_fd_sc_hd__xnor2_1
*I *128:B I *D sky130_fd_sc_hd__and3_1
*I *126:Y O *D sky130_fd_sc_hd__nand3_1
*CAP
1 *130:B 0.000164046
2 *128:B 4.84662e-05
3 *126:Y 5.94923e-05
4 *19:10 0.000212513
5 *19:8 5.94923e-05
6 *128:B *28:14 1.39317e-05
7 *130:B *28:14 1.28795e-05
8 *15:8 *19:8 0
9 *17:25 *19:8 8.62783e-05
*RES
1 *126:Y *19:8 39.2014 
2 *19:8 *19:10 15 
3 *19:10 *128:B 23.6214 
4 *19:10 *130:B 25.4236 
*END

*D_NET *20 0.000489708
*CONN
*I *128:C I *D sky130_fd_sc_hd__and3_1
*I *127:X O *D sky130_fd_sc_hd__a21o_1
*CAP
1 *128:C 1.52753e-05
2 *127:X 0.000219183
3 *20:10 0.000234458
4 *128:C *28:14 2.07921e-05
*RES
1 *127:X *20:10 40.7757 
2 *20:10 *128:C 38.2279 
*END

*D_NET *21 0.00112097
*CONN
*I *129:A I *D sky130_fd_sc_hd__clkbuf_1
*I *128:X O *D sky130_fd_sc_hd__and3_1
*CAP
1 *129:A 0
2 *128:X 0.000528439
3 *21:14 0.000528439
4 *21:14 *137:CLK 0
5 *21:14 *28:14 2.07484e-05
6 *11:8 *21:14 4.334e-05
*RES
1 *128:X *21:14 46.2857 
2 *21:14 *129:A 38 
*END

*D_NET *22 0.00119183
*CONN
*I *141:A I *D sky130_fd_sc_hd__clkbuf_16
*I *140:A I *D sky130_fd_sc_hd__clkbuf_16
*I *139:X O *D sky130_fd_sc_hd__clkbuf_16
*CAP
1 *141:A 0.000237265
2 *140:A 0.000358649
3 *139:X 0
4 *22:6 0.000595914
5 *140:A *26:30 0
6 *141:A *26:30 0
*RES
1 *139:X *22:6 38 
2 *22:6 *140:A 44.2143 
3 *22:6 *141:A 42.205 
*END

*D_NET *23 0.00183778
*CONN
*I *137:CLK I *D sky130_fd_sc_hd__dfrtp_1
*I *135:CLK I *D sky130_fd_sc_hd__dfrtp_2
*I *140:X O *D sky130_fd_sc_hd__clkbuf_16
*CAP
1 *137:CLK 0.000371884
2 *135:CLK 0.000363987
3 *140:X 0
4 *23:6 0.000735872
5 *3:13 *137:CLK 0.000366037
6 *9:8 *135:CLK 0
7 *11:8 *137:CLK 0
8 *21:14 *137:CLK 0
*RES
1 *140:X *23:6 38 
2 *23:6 *135:CLK 44.8771 
3 *23:6 *137:CLK 46.2443 
*END

*D_NET *24 0.00293975
*CONN
*I *138:CLK I *D sky130_fd_sc_hd__dfrtp_1
*I *142:A I *D sky130_fd_sc_hd__clkbuf_4
*I *136:CLK I *D sky130_fd_sc_hd__dfrtp_1
*I *141:X O *D sky130_fd_sc_hd__clkbuf_16
*CAP
1 *138:CLK 0.000832518
2 *142:A 4.24211e-05
3 *136:CLK 0.000319234
4 *141:X 0
5 *24:8 0.000559723
6 *24:6 0.00103059
7 *136:CLK *25:14 0
8 *138:CLK *25:14 0
9 *138:CLK *29:14 0
10 *24:8 *25:14 0
11 count[1] *136:CLK 0.000123984
12 *138:D *138:CLK 3.12831e-05
13 *8:13 *138:CLK 0
14 *8:13 *24:8 0
*RES
1 *141:X *24:6 38 
2 *24:6 *24:8 4.01857 
3 *24:8 *136:CLK 44.0486 
4 *24:8 *142:A 38.6214 
5 *24:6 *138:CLK 49.6829 
*END

*D_NET *25 0.00463364
*CONN
*I *134:A I *D sky130_fd_sc_hd__inv_2
*I *132:A I *D sky130_fd_sc_hd__inv_2
*I *131:A I *D sky130_fd_sc_hd__inv_2
*I *133:A I *D sky130_fd_sc_hd__inv_2
*I *146:X O *D sky130_fd_sc_hd__clkbuf_2
*CAP
1 *134:A 0
2 *132:A 0
3 *131:A 0
4 *133:A 0
5 *146:X 0.000135061
6 *25:24 0.00043174
7 *25:16 0.000911163
8 *25:14 0.00100349
9 *25:6 0.000659126
10 *25:6 *122:C 0.000275932
11 *25:14 *122:C 0.000100069
12 *25:14 *27:23 0
13 *25:14 *27:34 0
14 *25:16 *123:A_N 8.65377e-05
15 *25:16 *144:A 0.000276842
16 *25:24 *123:A_N 0.000146822
17 *25:24 *26:30 0
18 count[1] *25:14 0
19 *136:CLK *25:14 0
20 *138:CLK *25:14 0
21 *13:10 *25:24 1.34017e-05
22 *14:10 *25:16 1.94812e-05
23 *17:14 *25:24 0.000573972
24 *17:25 *25:24 0
25 *24:8 *25:14 0
*RES
1 *146:X *25:6 26.0036 
2 *25:6 *25:14 39.3421 
3 *25:14 *25:16 9.19714 
4 *25:16 *25:24 40.7714 
5 *25:24 *133:A 23 
6 *25:16 *131:A 23 
7 *25:14 *132:A 23 
8 *25:6 *134:A 23 
*END

*D_NET *26 0.00603701
*CONN
*I *127:A2 I *D sky130_fd_sc_hd__a21o_1
*I *122:B I *D sky130_fd_sc_hd__or4b_1
*I *126:B I *D sky130_fd_sc_hd__nand3_1
*I *147:A I *D sky130_fd_sc_hd__buf_2
*I *144:A I *D sky130_fd_sc_hd__dlygate4sd3_1
*I *123:A_N I *D sky130_fd_sc_hd__and2b_1
*I *135:Q O *D sky130_fd_sc_hd__dfrtp_2
*CAP
1 *127:A2 0
2 *122:B 0
3 *126:B 0
4 *147:A 0.000519027
5 *144:A 0.000105068
6 *123:A_N 8.4495e-05
7 *135:Q 0.000155432
8 *26:69 0.000346142
9 *26:54 0.000695032
10 *26:30 0.00131523
11 *26:12 0.000189563
12 *26:10 0.000602751
13 *123:A_N *31:10 6.17437e-06
14 *144:A *31:10 2.02872e-05
15 *147:A *126:C 5.40241e-05
16 *26:10 *27:12 8.91468e-07
17 *26:10 *27:23 0
18 *26:10 *31:10 8.4047e-05
19 *26:30 *27:23 0
20 *26:30 *27:34 0
21 *26:54 *122:C 5.40876e-05
22 *26:54 *122:D_N 1.10658e-05
23 *26:54 *126:A 0.000140308
24 *26:54 *126:C 7.30127e-05
25 *26:54 *28:22 2.04118e-05
26 *26:69 *122:C 2.31687e-05
27 *26:69 *127:A1 0.000376586
28 *26:69 *149:A 2.24366e-06
29 *26:69 *28:42 5.44889e-06
30 *26:69 *30:10 2.02872e-05
31 *140:A *26:30 0
32 *141:A *26:30 0
33 *13:10 *123:A_N 5.44109e-05
34 *17:6 *26:54 5.53483e-05
35 *17:14 *147:A 0.000360771
36 *17:14 *26:10 0
37 *17:14 *26:30 0
38 *17:14 *26:54 8.43466e-05
39 *17:25 *26:30 1.58805e-05
40 *17:25 *26:54 5.12605e-05
41 *25:16 *123:A_N 8.65377e-05
42 *25:16 *144:A 0.000276842
43 *25:24 *123:A_N 0.000146822
44 *25:24 *26:30 0
*RES
1 *135:Q *26:10 40.5271 
2 *26:10 *26:12 15 
3 *26:12 *123:A_N 25.5271 
4 *26:12 *144:A 26.0036 
5 *26:10 *26:30 23.2443 
6 *26:30 *147:A 33.1707 
7 *26:30 *126:B 23 
8 *26:30 *26:54 36.1314 
9 *26:54 *122:B 23 
10 *26:54 *26:69 36.4421 
11 *26:69 *127:A2 23 
*END

*D_NET *27 0.00519165
*CONN
*I *127:A1 I *D sky130_fd_sc_hd__a21o_1
*I *122:A I *D sky130_fd_sc_hd__or4b_1
*I *126:A I *D sky130_fd_sc_hd__nand3_1
*I *148:A I *D sky130_fd_sc_hd__buf_2
*I *125:A I *D sky130_fd_sc_hd__xor2_1
*I *136:Q O *D sky130_fd_sc_hd__dfrtp_1
*CAP
1 *127:A1 0.000321446
2 *122:A 0
3 *126:A 5.85111e-05
4 *148:A 0.000312773
5 *125:A 0
6 *136:Q 0
7 *27:40 0.000181206
8 *27:34 0.000749353
9 *27:23 0.00117437
10 *27:12 0.000256274
11 *27:4 0.000812655
12 *126:A *126:C 0.000183506
13 *127:A1 *127:B1 1.24376e-05
14 *127:A1 *28:22 9.3274e-05
15 *127:A1 *28:42 1.12919e-05
16 *127:A1 *30:10 0.000192951
17 *27:12 *31:10 0.000141869
18 *27:23 *31:10 0
19 *27:23 *32:10 0
20 *27:40 *122:D_N 0.00015477
21 *27:40 *126:C 1.71761e-05
22 *14:10 *27:23 0
23 *25:14 *27:23 0
24 *25:14 *27:34 0
25 *26:10 *27:12 8.91468e-07
26 *26:10 *27:23 0
27 *26:30 *27:23 0
28 *26:30 *27:34 0
29 *26:54 *126:A 0.000140308
30 *26:69 *127:A1 0.000376586
*RES
1 *136:Q *27:4 23 
2 *27:4 *27:12 33.9564 
3 *27:12 *125:A 23 
4 *27:4 *27:23 24.0107 
5 *27:23 *148:A 43.3857 
6 *27:23 *27:34 5.42714 
7 *27:34 *27:40 17.5479 
8 *27:40 *126:A 25.0507 
9 *27:40 *122:A 23 
10 *27:34 *127:A1 45.3743 
*END

*D_NET *28 0.00366991
*CONN
*I *149:A I *D sky130_fd_sc_hd__clkbuf_4
*I *127:B1 I *D sky130_fd_sc_hd__a21o_1
*I *122:D_N I *D sky130_fd_sc_hd__or4b_1
*I *126:C I *D sky130_fd_sc_hd__nand3_1
*I *137:Q O *D sky130_fd_sc_hd__dfrtp_1
*CAP
1 *149:A 0.000248783
2 *127:B1 7.54087e-05
3 *122:D_N 7.32836e-05
4 *126:C 0.000187005
5 *137:Q 0.000367627
6 *28:42 0.000456968
7 *28:22 0.000485384
8 *28:14 0.000725498
9 *122:D_N *122:C 0.0001423
10 *28:14 *130:A 5.40241e-05
11 *28:22 *30:10 6.15719e-05
12 *28:42 *30:10 8.50457e-05
13 *126:A *126:C 0.000183506
14 *127:A1 *127:B1 1.24376e-05
15 *127:A1 *28:22 9.3274e-05
16 *127:A1 *28:42 1.12919e-05
17 *128:B *28:14 1.39317e-05
18 *128:C *28:14 2.07921e-05
19 *130:B *28:14 1.28795e-05
20 *147:A *126:C 5.40241e-05
21 *21:14 *28:14 2.07484e-05
22 *26:54 *122:D_N 1.10658e-05
23 *26:54 *126:C 7.30127e-05
24 *26:54 *28:22 2.04118e-05
25 *26:69 *149:A 2.24366e-06
26 *26:69 *28:42 5.44889e-06
27 *27:40 *122:D_N 0.00015477
28 *27:40 *126:C 1.71761e-05
*RES
1 *137:Q *28:14 44.0486 
2 *28:14 *28:22 19.4329 
3 *28:22 *126:C 27.4536 
4 *28:22 *122:D_N 25.5479 
5 *28:14 *28:42 1.90571 
6 *28:42 *127:B1 39.0979 
7 *28:42 *149:A 42.4121 
*END

*D_NET *29 0.00279806
*CONN
*I *143:A I *D sky130_fd_sc_hd__dlygate4sd3_1
*I *150:A I *D sky130_fd_sc_hd__buf_2
*I *122:C I *D sky130_fd_sc_hd__or4b_1
*I *138:Q O *D sky130_fd_sc_hd__dfrtp_1
*CAP
1 *143:A 0.000325161
2 *150:A 2.30556e-05
3 *122:C 0.000450916
4 *138:Q 5.84142e-05
5 *29:14 0.000612645
6 *29:8 0.000522249
7 count[3] *143:A 4.94435e-05
8 count[3] *29:14 7.89883e-05
9 *122:D_N *122:C 0.0001423
10 *138:CLK *29:14 0
11 *8:13 *122:C 5.68958e-05
12 *8:13 *29:14 2.47321e-05
13 *25:6 *122:C 0.000275932
14 *25:14 *122:C 0.000100069
15 *26:54 *122:C 5.40876e-05
16 *26:69 *122:C 2.31687e-05
*RES
1 *138:Q *29:8 38.6214 
2 *29:8 *29:14 17.5271 
3 *29:14 *122:C 33.6264 
4 *29:14 *150:A 23.4971 
5 *29:8 *143:A 44.1936 
*END

*D_NET *30 0.00147411
*CONN
*I *130:A I *D sky130_fd_sc_hd__xnor2_1
*I *143:X O *D sky130_fd_sc_hd__dlygate4sd3_1
*CAP
1 *130:A 8.25443e-05
2 *143:X 0.000447572
3 *30:10 0.000530117
4 *127:A1 *30:10 0.000192951
5 *26:69 *30:10 2.02872e-05
6 *28:14 *130:A 5.40241e-05
7 *28:22 *30:10 6.15719e-05
8 *28:42 *30:10 8.50457e-05
*RES
1 *143:X *30:10 44.815 
2 *30:10 *130:A 39.5743 
*END

*D_NET *31 0.000823272
*CONN
*I *125:B I *D sky130_fd_sc_hd__xor2_1
*I *144:X O *D sky130_fd_sc_hd__dlygate4sd3_1
*CAP
1 *125:B 0
2 *144:X 0.000285447
3 *31:10 0.000285447
4 *123:A_N *31:10 6.17437e-06
5 *144:A *31:10 2.02872e-05
6 *26:10 *31:10 8.4047e-05
7 *27:12 *31:10 0.000141869
8 *27:23 *31:10 0
*RES
1 *144:X *31:10 43.6964 
2 *31:10 *125:B 38 
*END

*D_NET *32 0.000754077
*CONN
*I *136:D I *D sky130_fd_sc_hd__dfrtp_1
*I *145:X O *D sky130_fd_sc_hd__dlygate4sd3_1
*CAP
1 *136:D 0.000102398
2 *145:X 0.000271845
3 *32:10 0.000374244
4 *14:10 *32:10 5.58975e-06
5 *27:23 *32:10 0
*RES
1 *145:X *32:10 41.6043 
2 *32:10 *136:D 39.5743 
*END
