*SPEF "ieee 1481-1999"
*DESIGN "ZeroToFiveCounter"
*DATE "20:09:17 Monday May 26, 2025"
*VENDOR "The OpenROAD Project"
*PROGRAM "OpenROAD"
*VERSION "b16bda7e82721d10566ff7e2b68f1ff0be9f9e38"
*DESIGN_FLOW "NAME_SCOPE LOCAL" "PIN_CAP NONE"
*DIVIDER /
*DELIMITER :
*BUS_DELIMITER []
*T_UNIT 1 NS
*C_UNIT 1 PF
*R_UNIT 1 OHM
*L_UNIT 1 HENRY

*NAME_MAP
*3 clk
*4 count[0]
*5 count[1]
*6 count[2]
*7 count[3]
*8 rst
*9 _00_
*10 _01_
*11 _02_
*12 _03_
*13 _04_
*14 _05_
*15 _06_
*16 _07_
*17 _08_
*18 _09_
*19 _10_
*20 _11_
*21 _12_
*22 clknet_0_clk
*23 clknet_1_0__leaf_clk
*24 clknet_1_1__leaf_clk
*25 net1
*26 net2
*27 net3
*28 net4
*29 net5
*30 net6
*31 net7
*32 net8
*33 FILLER_0_0_15
*34 FILLER_0_0_27
*35 FILLER_0_0_29
*36 FILLER_0_0_3
*37 FILLER_0_0_41
*38 FILLER_0_0_53
*39 FILLER_0_0_57
*40 FILLER_0_1_15
*41 FILLER_0_1_23
*42 FILLER_0_1_3
*43 FILLER_0_1_31
*44 FILLER_0_1_40
*45 FILLER_0_1_52
*46 FILLER_0_1_57
*47 FILLER_0_2_27
*48 FILLER_0_2_29
*49 FILLER_0_2_3
*50 FILLER_0_2_50
*51 FILLER_0_2_58
*52 FILLER_0_3_11
*53 FILLER_0_3_25
*54 FILLER_0_3_3
*55 FILLER_0_3_34
*56 FILLER_0_3_40
*57 FILLER_0_3_44
*58 FILLER_0_3_57
*59 FILLER_0_4_23
*60 FILLER_0_4_27
*61 FILLER_0_4_29
*62 FILLER_0_4_41
*63 FILLER_0_4_45
*64 FILLER_0_4_56
*65 FILLER_0_5_15
*66 FILLER_0_5_3
*67 FILLER_0_5_57
*68 FILLER_0_6_14
*69 FILLER_0_6_20
*70 FILLER_0_6_37
*71 FILLER_0_6_48
*72 FILLER_0_6_7
*73 FILLER_0_7_3
*74 FILLER_0_7_57
*75 FILLER_0_8_15
*76 FILLER_0_8_27
*77 FILLER_0_8_3
*78 FILLER_0_8_35
*79 FILLER_0_8_43
*80 FILLER_0_8_52
*81 FILLER_0_8_58
*82 FILLER_0_9_15
*83 FILLER_0_9_27
*84 FILLER_0_9_29
*85 FILLER_0_9_3
*86 FILLER_0_9_37
*87 FILLER_0_9_49
*88 FILLER_0_9_55
*89 FILLER_0_9_57
*90 PHY_EDGE_ROW_0_Left_10
*91 PHY_EDGE_ROW_0_Right_0
*92 PHY_EDGE_ROW_1_Left_11
*93 PHY_EDGE_ROW_1_Right_1
*94 PHY_EDGE_ROW_2_Left_12
*95 PHY_EDGE_ROW_2_Right_2
*96 PHY_EDGE_ROW_3_Left_13
*97 PHY_EDGE_ROW_3_Right_3
*98 PHY_EDGE_ROW_4_Left_14
*99 PHY_EDGE_ROW_4_Right_4
*100 PHY_EDGE_ROW_5_Left_15
*101 PHY_EDGE_ROW_5_Right_5
*102 PHY_EDGE_ROW_6_Left_16
*103 PHY_EDGE_ROW_6_Right_6
*104 PHY_EDGE_ROW_7_Left_17
*105 PHY_EDGE_ROW_7_Right_7
*106 PHY_EDGE_ROW_8_Left_18
*107 PHY_EDGE_ROW_8_Right_8
*108 PHY_EDGE_ROW_9_Left_19
*109 PHY_EDGE_ROW_9_Right_9
*110 TAP_TAPCELL_ROW_0_20
*111 TAP_TAPCELL_ROW_0_21
*112 TAP_TAPCELL_ROW_1_22
*113 TAP_TAPCELL_ROW_2_23
*114 TAP_TAPCELL_ROW_3_24
*115 TAP_TAPCELL_ROW_4_25
*116 TAP_TAPCELL_ROW_5_26
*117 TAP_TAPCELL_ROW_6_27
*118 TAP_TAPCELL_ROW_7_28
*119 TAP_TAPCELL_ROW_8_29
*120 TAP_TAPCELL_ROW_9_30
*121 TAP_TAPCELL_ROW_9_31
*122 _13_
*123 _14_
*124 _15_
*125 _16_
*126 _17_
*127 _18_
*128 _19_
*129 _20_
*130 _21_
*131 _22_
*132 _23_
*133 _24_
*134 _25_
*135 _26_
*136 _27_
*137 _28_
*138 _29_
*139 clkbuf_0_clk
*140 clkbuf_1_0__f_clk
*141 clkbuf_1_1__f_clk
*142 clkload0
*143 hold1
*144 hold2
*145 hold3
*146 input1
*147 output2
*148 output3
*149 output4
*150 output5

*PORTS
clk I
count[0] O
count[1] O
count[2] O
count[3] O
rst I

*D_NET *3 0.00186427
*CONN
*P clk I
*I *139:A I *D sky130_fd_sc_hd__clkbuf_16
*CAP
1 clk 0.00072274
2 *139:A 0.00072274
3 *139:A count[0] 8.83711e-05
4 *139:A *137:CLK 0.000330421
*RES
1 clk *139:A 27.5336 
*END

*D_NET *4 0.000613745
*CONN
*P count[0] O
*I *147:X O *D sky130_fd_sc_hd__buf_2
*CAP
1 count[0] 0.000262687
2 *147:X 0.000262687
3 *139:A count[0] 8.83711e-05
*RES
1 *147:X count[0] 18.9972 
*END

*D_NET *5 0.00150949
*CONN
*P count[1] O
*I *148:X O *D sky130_fd_sc_hd__buf_2
*CAP
1 count[1] 0.000668752
2 *148:X 0.000668752
3 count[1] *136:CLK 0.00011213
4 count[1] *146:A 5.98552e-05
5 count[1] *25:14 0
*RES
1 *148:X count[1] 20.5215 
*END

*D_NET *6 0.00115838
*CONN
*P count[2] O
*I *149:X O *D sky130_fd_sc_hd__clkbuf_4
*CAP
1 count[2] 0.00057919
2 *149:X 0.00057919
*RES
1 *149:X count[2] 24.6393 
*END

*D_NET *7 0.000855894
*CONN
*P count[3] O
*I *150:X O *D sky130_fd_sc_hd__buf_2
*CAP
1 count[3] 0.000369058
2 *150:X 0.000369058
3 count[3] *143:A 4.48128e-05
4 count[3] *146:A 0
5 count[3] *29:14 7.29646e-05
*RES
1 *150:X count[3] 19.4092 
*END

*D_NET *8 0.0012701
*CONN
*P rst I
*I *146:A I *D sky130_fd_sc_hd__clkbuf_2
*CAP
1 rst 0.000565775
2 *146:A 0.000565775
3 *146:A *122:C 5.45307e-05
4 *146:A *138:CLK 0
5 *146:A *24:8 0
6 *146:A *29:14 2.41665e-05
7 count[1] *146:A 5.98552e-05
8 count[3] *146:A 0
*RES
1 rst *146:A 23.3021 
*END

*D_NET *9 0.00041371
*CONN
*I *135:D I *D sky130_fd_sc_hd__dfrtp_2
*I *124:X O *D sky130_fd_sc_hd__clkbuf_1
*CAP
1 *135:D 0.000206855
2 *124:X 0.000206855
3 *135:D *135:CLK 0
*RES
1 *124:X *135:D 31.0107 
*END

*D_NET *10 0.000112924
*CONN
*I *145:A I *D sky130_fd_sc_hd__dlygate4sd3_1
*I *125:X O *D sky130_fd_sc_hd__xor2_1
*CAP
1 *145:A 5.64622e-05
2 *125:X 5.64622e-05
*RES
1 *125:X *145:A 19.5464 
*END

*D_NET *11 0.000444135
*CONN
*I *137:D I *D sky130_fd_sc_hd__dfrtp_1
*I *129:X O *D sky130_fd_sc_hd__clkbuf_1
*CAP
1 *137:D 0.000201272
2 *129:X 0.000201272
3 *137:D *129:A 4.15914e-05
4 *137:D *137:CLK 0
5 *137:D *137:RESET_B 0
*RES
1 *129:X *137:D 31.0107 
*END

*D_NET *12 0.000308263
*CONN
*I *138:D I *D sky130_fd_sc_hd__dfrtp_1
*I *130:Y O *D sky130_fd_sc_hd__xnor2_1
*CAP
1 *138:D 0.000137786
2 *130:Y 0.000137786
3 *138:D *138:CLK 3.26907e-05
*RES
1 *130:Y *138:D 20.7964 
*END

*D_NET *13 0.000544983
*CONN
*I *135:RESET_B I *D sky130_fd_sc_hd__dfrtp_2
*I *131:Y O *D sky130_fd_sc_hd__inv_2
*CAP
1 *135:RESET_B 0.00023952
2 *131:Y 0.00023952
3 *135:RESET_B *123:A_N 5.25759e-05
4 *135:RESET_B *133:A 1.33672e-05
*RES
1 *131:Y *135:RESET_B 21.9071 
*END

*D_NET *14 0.00036102
*CONN
*I *136:RESET_B I *D sky130_fd_sc_hd__dfrtp_1
*I *132:Y O *D sky130_fd_sc_hd__inv_2
*CAP
1 *136:RESET_B 0.000168176
2 *132:Y 0.000168176
3 *136:RESET_B *136:D 5.37741e-06
4 *136:RESET_B *25:16 1.92905e-05
5 *136:RESET_B *27:23 0
*RES
1 *132:Y *136:RESET_B 21.0857 
*END

*D_NET *15 0.000306728
*CONN
*I *137:RESET_B I *D sky130_fd_sc_hd__dfrtp_1
*I *133:Y O *D sky130_fd_sc_hd__inv_2
*CAP
1 *137:RESET_B 0.000153364
2 *133:Y 0.000153364
3 *137:RESET_B *128:A 0
4 *137:RESET_B *19:10 0
5 *137:D *137:RESET_B 0
*RES
1 *133:Y *137:RESET_B 20.55 
*END

*D_NET *16 0.000274241
*CONN
*I *138:RESET_B I *D sky130_fd_sc_hd__dfrtp_1
*I *134:Y O *D sky130_fd_sc_hd__inv_2
*CAP
1 *138:RESET_B 0.000137121
2 *134:Y 0.000137121
*RES
1 *134:Y *138:RESET_B 20.55 
*END

*D_NET *17 0.00275176
*CONN
*I *128:A I *D sky130_fd_sc_hd__and3_1
*I *123:B I *D sky130_fd_sc_hd__and2b_1
*I *122:X O *D sky130_fd_sc_hd__or4b_1
*CAP
1 *128:A 0.000188964
2 *123:B 0.000577629
3 *122:X 3.24223e-05
4 *17:6 0.000799015
5 *123:B *133:A 0.000516745
6 *123:B *147:A 0.000354511
7 *123:B *26:10 0
8 *123:B *26:30 0
9 *123:B *26:54 8.46829e-05
10 *128:A *133:A 0
11 *128:A *19:10 7.83587e-05
12 *128:A *26:30 1.52978e-05
13 *128:A *26:54 4.93964e-05
14 *17:6 *26:54 5.47389e-05
15 *137:RESET_B *128:A 0
*RES
1 *122:X *17:6 9.83571 
2 *17:6 *123:B 29.6393 
3 *17:6 *128:A 22.0679 
*END

*D_NET *18 0.000108489
*CONN
*I *124:A I *D sky130_fd_sc_hd__clkbuf_1
*I *123:X O *D sky130_fd_sc_hd__and2b_1
*CAP
1 *124:A 5.42444e-05
2 *123:X 5.42444e-05
*RES
1 *123:X *124:A 19.5643 
*END

*D_NET *19 0.000595697
*CONN
*I *130:B I *D sky130_fd_sc_hd__xnor2_1
*I *128:B I *D sky130_fd_sc_hd__and3_1
*I *126:Y O *D sky130_fd_sc_hd__nand3_1
*CAP
1 *130:B 0.00015198
2 *128:B 4.42861e-05
3 *126:Y 4.85613e-05
4 *19:10 0.000244827
5 *128:B *28:14 1.40306e-05
6 *130:B *28:14 1.36536e-05
7 *128:A *19:10 7.83587e-05
8 *137:RESET_B *19:10 0
*RES
1 *126:Y *19:10 19.3357 
2 *19:10 *128:B 9.83571 
3 *19:10 *130:B 11.3893 
*END

*D_NET *20 0.000444787
*CONN
*I *128:C I *D sky130_fd_sc_hd__and3_1
*I *127:X O *D sky130_fd_sc_hd__a21o_1
*CAP
1 *128:C 0.000211916
2 *127:X 0.000211916
3 *128:C *28:14 2.0954e-05
*RES
1 *127:X *128:C 30.1893 
*END

*D_NET *21 0.00103164
*CONN
*I *129:A I *D sky130_fd_sc_hd__clkbuf_1
*I *128:X O *D sky130_fd_sc_hd__and3_1
*CAP
1 *129:A 0.000484628
2 *128:X 0.000484628
3 *129:A *137:CLK 0
4 *129:A *28:14 2.07878e-05
5 *137:D *129:A 4.15914e-05
*RES
1 *128:X *129:A 34.7429 
*END

*D_NET *22 0.00109519
*CONN
*I *141:A I *D sky130_fd_sc_hd__clkbuf_16
*I *140:A I *D sky130_fd_sc_hd__clkbuf_16
*I *139:X O *D sky130_fd_sc_hd__clkbuf_16
*CAP
1 *141:A 0.000218532
2 *140:A 0.000329061
3 *139:X 0
4 *22:6 0.000547593
5 *140:A *26:30 0
6 *141:A *26:30 0
*RES
1 *139:X *22:6 13.8 
2 *22:6 *140:A 19.1571 
3 *22:6 *141:A 17.425 
*END

*D_NET *23 0.00166363
*CONN
*I *137:CLK I *D sky130_fd_sc_hd__dfrtp_1
*I *135:CLK I *D sky130_fd_sc_hd__dfrtp_2
*I *140:X O *D sky130_fd_sc_hd__clkbuf_16
*CAP
1 *137:CLK 0.000333686
2 *135:CLK 0.000332916
3 *140:X 0
4 *23:6 0.000666602
5 *129:A *137:CLK 0
6 *135:D *135:CLK 0
7 *137:D *137:CLK 0
8 *139:A *137:CLK 0.000330421
*RES
1 *140:X *23:6 13.8 
2 *23:6 *135:CLK 19.7286 
3 *23:6 *137:CLK 20.9071 
*END

*D_NET *24 0.00268548
*CONN
*I *138:CLK I *D sky130_fd_sc_hd__dfrtp_1
*I *142:A I *D sky130_fd_sc_hd__clkbuf_4
*I *136:CLK I *D sky130_fd_sc_hd__dfrtp_1
*I *141:X O *D sky130_fd_sc_hd__clkbuf_16
*CAP
1 *138:CLK 0.000766581
2 *142:A 3.72704e-05
3 *136:CLK 0.00028396
4 *141:X 0
5 *24:8 0.000503749
6 *24:6 0.000949099
7 *136:CLK *25:14 0
8 *138:CLK *25:14 0
9 *138:CLK *29:14 0
10 *24:8 *25:14 0
11 count[1] *136:CLK 0.00011213
12 *138:D *138:CLK 3.26907e-05
13 *146:A *138:CLK 0
14 *146:A *24:8 0
*RES
1 *141:X *24:6 13.8 
2 *24:6 *24:8 3.46429 
3 *24:8 *136:CLK 19.0143 
4 *24:8 *142:A 14.3357 
5 *24:6 *138:CLK 23.8714 
*END

*D_NET *25 0.00421476
*CONN
*I *134:A I *D sky130_fd_sc_hd__inv_2
*I *132:A I *D sky130_fd_sc_hd__inv_2
*I *131:A I *D sky130_fd_sc_hd__inv_2
*I *133:A I *D sky130_fd_sc_hd__inv_2
*I *146:X O *D sky130_fd_sc_hd__clkbuf_2
*CAP
1 *134:A 0
2 *132:A 0
3 *131:A 0
4 *133:A 0.000383197
5 *146:X 0.000115823
6 *25:16 0.000816878
7 *25:14 0.00089842
8 *25:6 0.000580563
9 *133:A *123:A_N 0.000143375
10 *133:A *26:30 0
11 *25:6 *122:C 0.000271302
12 *25:14 *122:C 9.83442e-05
13 *25:14 *27:23 0
14 *25:14 *27:34 0
15 *25:16 *123:A_N 8.51331e-05
16 *25:16 *144:A 0.000272327
17 count[1] *25:14 0
18 *123:B *133:A 0.000516745
19 *128:A *133:A 0
20 *135:RESET_B *133:A 1.33672e-05
21 *136:CLK *25:14 0
22 *136:RESET_B *25:16 1.92905e-05
23 *138:CLK *25:14 0
24 *24:8 *25:14 0
*RES
1 *146:X *25:6 11.8893 
2 *25:6 *25:14 17.0536 
3 *25:14 *25:16 7.92857 
4 *25:16 *133:A 27.5857 
5 *25:16 *131:A 9.3 
6 *25:14 *132:A 9.3 
7 *25:6 *134:A 9.3 
*END

*D_NET *26 0.00550076
*CONN
*I *127:A2 I *D sky130_fd_sc_hd__a21o_1
*I *122:B I *D sky130_fd_sc_hd__or4b_1
*I *126:B I *D sky130_fd_sc_hd__nand3_1
*I *147:A I *D sky130_fd_sc_hd__buf_2
*I *144:A I *D sky130_fd_sc_hd__dlygate4sd3_1
*I *123:A_N I *D sky130_fd_sc_hd__and2b_1
*I *135:Q O *D sky130_fd_sc_hd__dfrtp_2
*CAP
1 *127:A2 0.000287798
2 *122:B 0
3 *126:B 0
4 *147:A 0.000475146
5 *144:A 9.53297e-05
6 *123:A_N 7.29707e-05
7 *135:Q 0.000135631
8 *26:54 0.000592187
9 *26:30 0.00117902
10 *26:12 0.0001683
11 *26:10 0.000535111
12 *123:A_N *125:B 6.05161e-06
13 *127:A2 *122:C 2.23592e-05
14 *127:A2 *127:A1 0.00034621
15 *127:A2 *130:A 1.98839e-05
16 *127:A2 *149:A 2.38651e-06
17 *127:A2 *28:42 5.79582e-06
18 *144:A *125:B 1.98839e-05
19 *147:A *126:C 5.20669e-05
20 *26:10 *125:A 9.33978e-07
21 *26:10 *125:B 7.6644e-05
22 *26:10 *27:23 0
23 *26:30 *27:23 0
24 *26:30 *27:34 0
25 *26:54 *122:C 5.28345e-05
26 *26:54 *122:D_N 1.10868e-05
27 *26:54 *126:A 0.000139485
28 *26:54 *126:C 7.1087e-05
29 *26:54 *28:22 2.05279e-05
30 *123:B *147:A 0.000354511
31 *123:B *26:10 0
32 *123:B *26:30 0
33 *123:B *26:54 8.46829e-05
34 *128:A *26:30 1.52978e-05
35 *128:A *26:54 4.93964e-05
36 *133:A *123:A_N 0.000143375
37 *133:A *26:30 0
38 *135:RESET_B *123:A_N 5.25759e-05
39 *140:A *26:30 0
40 *141:A *26:30 0
41 *17:6 *26:54 5.47389e-05
42 *25:16 *123:A_N 8.51331e-05
43 *25:16 *144:A 0.000272327
*RES
1 *135:Q *26:10 15.9786 
2 *26:10 *26:12 4.5 
3 *26:12 *123:A_N 11.4786 
4 *26:12 *144:A 11.8893 
5 *26:10 *26:30 11.6071 
6 *26:30 *147:A 18.0679 
7 *26:30 *126:B 9.3 
8 *26:30 *26:54 14.2857 
9 *26:54 *122:B 9.3 
10 *26:54 *127:A2 23.8536 
*END

*D_NET *27 0.00469825
*CONN
*I *127:A1 I *D sky130_fd_sc_hd__a21o_1
*I *122:A I *D sky130_fd_sc_hd__or4b_1
*I *126:A I *D sky130_fd_sc_hd__nand3_1
*I *148:A I *D sky130_fd_sc_hd__buf_2
*I *125:A I *D sky130_fd_sc_hd__xor2_1
*I *136:Q O *D sky130_fd_sc_hd__dfrtp_1
*CAP
1 *127:A1 0.00025622
2 *122:A 0
3 *126:A 4.65203e-05
4 *148:A 0.000291233
5 *125:A 0.00023177
6 *136:Q 0
7 *27:40 0.000156818
8 *27:34 0.000639869
9 *27:23 0.00107493
10 *27:4 0.000742114
11 *125:A *125:B 0.000128146
12 *126:A *126:C 0.000182002
13 *127:A1 *127:B1 1.24368e-05
14 *127:A1 *130:A 0.000179739
15 *127:A1 *28:22 9.01152e-05
16 *127:A1 *28:42 1.08847e-05
17 *27:23 *125:B 0
18 *27:23 *136:D 0
19 *27:40 *122:D_N 0.000152365
20 *27:40 *126:C 1.64621e-05
21 *127:A2 *127:A1 0.00034621
22 *136:RESET_B *27:23 0
23 *25:14 *27:23 0
24 *25:14 *27:34 0
25 *26:10 *125:A 9.33978e-07
26 *26:10 *27:23 0
27 *26:30 *27:23 0
28 *26:30 *27:34 0
29 *26:54 *126:A 0.000139485
*RES
1 *136:Q *27:4 9.3 
2 *27:4 *125:A 21.7107 
3 *27:4 *27:23 12.2679 
4 *27:23 *148:A 18.4429 
5 *27:23 *27:34 4.67857 
6 *27:34 *27:40 6.69643 
7 *27:40 *126:A 11.0679 
8 *27:40 *122:A 9.3 
9 *27:34 *127:A1 20.1571 
*END

*D_NET *28 0.00333953
*CONN
*I *149:A I *D sky130_fd_sc_hd__clkbuf_4
*I *127:B1 I *D sky130_fd_sc_hd__a21o_1
*I *122:D_N I *D sky130_fd_sc_hd__or4b_1
*I *126:C I *D sky130_fd_sc_hd__nand3_1
*I *137:Q O *D sky130_fd_sc_hd__dfrtp_1
*CAP
1 *149:A 0.000226163
2 *127:B1 6.50076e-05
3 *122:D_N 6.43855e-05
4 *126:C 0.000163746
5 *137:Q 0.000343114
6 *28:42 0.000392781
7 *28:22 0.000422642
8 *28:14 0.000639235
9 *122:D_N *122:C 0.000141279
10 *28:14 *130:A 5.20669e-05
11 *28:22 *130:A 5.54655e-05
12 *28:42 *130:A 7.70035e-05
13 *126:A *126:C 0.000182002
14 *127:A1 *127:B1 1.24368e-05
15 *127:A1 *28:22 9.01152e-05
16 *127:A1 *28:42 1.08847e-05
17 *127:A2 *149:A 2.38651e-06
18 *127:A2 *28:42 5.79582e-06
19 *128:B *28:14 1.40306e-05
20 *128:C *28:14 2.0954e-05
21 *129:A *28:14 2.07878e-05
22 *130:B *28:14 1.36536e-05
23 *147:A *126:C 5.20669e-05
24 *26:54 *122:D_N 1.10868e-05
25 *26:54 *126:C 7.1087e-05
26 *26:54 *28:22 2.05279e-05
27 *27:40 *122:D_N 0.000152365
28 *27:40 *126:C 1.64621e-05
*RES
1 *137:Q *28:14 19.0143 
2 *28:14 *28:22 8.32143 
3 *28:22 *126:C 13.1393 
4 *28:22 *122:D_N 11.4964 
5 *28:14 *28:42 1.64286 
6 *28:42 *127:B1 14.7464 
7 *28:42 *149:A 17.6036 
*END

*D_NET *29 0.00260267
*CONN
*I *143:A I *D sky130_fd_sc_hd__dlygate4sd3_1
*I *150:A I *D sky130_fd_sc_hd__buf_2
*I *122:C I *D sky130_fd_sc_hd__or4b_1
*I *138:Q O *D sky130_fd_sc_hd__dfrtp_1
*CAP
1 *143:A 0.000298763
2 *150:A 2.22847e-05
3 *122:C 0.000418809
4 *138:Q 5.27351e-05
5 *29:14 0.000558541
6 *29:8 0.000468945
7 count[3] *143:A 4.48128e-05
8 count[3] *29:14 7.29646e-05
9 *122:D_N *122:C 0.000141279
10 *127:A2 *122:C 2.23592e-05
11 *138:CLK *29:14 0
12 *146:A *122:C 5.45307e-05
13 *146:A *29:14 2.41665e-05
14 *25:6 *122:C 0.000271302
15 *25:14 *122:C 9.83442e-05
16 *26:54 *122:C 5.28345e-05
*RES
1 *138:Q *29:8 14.3357 
2 *29:8 *29:14 6.67857 
3 *29:14 *122:C 18.4607 
4 *29:14 *150:A 9.72857 
5 *29:8 *143:A 19.1393 
*END

*D_NET *30 0.00135046
*CONN
*I *130:A I *D sky130_fd_sc_hd__xnor2_1
*I *143:X O *D sky130_fd_sc_hd__dlygate4sd3_1
*CAP
1 *130:A 0.000483148
2 *143:X 0.000483148
3 *127:A1 *130:A 0.000179739
4 *127:A2 *130:A 1.98839e-05
5 *28:14 *130:A 5.20669e-05
6 *28:22 *130:A 5.54655e-05
7 *28:42 *130:A 7.70035e-05
*RES
1 *143:X *130:A 34.8321 
*END

*D_NET *31 0.000731744
*CONN
*I *125:B I *D sky130_fd_sc_hd__xor2_1
*I *144:X O *D sky130_fd_sc_hd__dlygate4sd3_1
*CAP
1 *125:B 0.000250509
2 *144:X 0.000250509
3 *123:A_N *125:B 6.05161e-06
4 *125:A *125:B 0.000128146
5 *144:A *125:B 1.98839e-05
6 *26:10 *125:B 7.6644e-05
7 *27:23 *125:B 0
*RES
1 *144:X *125:B 32.5107 
*END

*D_NET *32 0.000687834
*CONN
*I *136:D I *D sky130_fd_sc_hd__dfrtp_1
*I *145:X O *D sky130_fd_sc_hd__dlygate4sd3_1
*CAP
1 *136:D 0.000341228
2 *145:X 0.000341228
3 *136:RESET_B *136:D 5.37741e-06
4 *27:23 *136:D 0
*RES
1 *145:X *136:D 32.0643 
*END
