*SPEF "ieee 1481-1999"
*DESIGN "twoscomp"
*DATE "11:48:27 Wednesday June 18, 2025"
*VENDOR "The OpenROAD Project"
*PROGRAM "OpenROAD"
*VERSION "b16bda7e82721d10566ff7e2b68f1ff0be9f9e38"
*DESIGN_FLOW "NAME_SCOPE LOCAL" "PIN_CAP NONE"
*DIVIDER /
*DELIMITER :
*BUS_DELIMITER []
*T_UNIT 1 NS
*C_UNIT 1 PF
*R_UNIT 1 OHM
*L_UNIT 1 HENRY

*NAME_MAP
*1 A[0]
*2 A[1]
*3 A[2]
*4 A[3]
*7 Y[0]
*8 Y[1]
*9 Y[2]
*10 Y[3]
*11 _0_
*12 _1_
*13 _2_
*14 net1
*15 net2
*16 net3
*17 net4
*18 net5
*19 net6
*20 net7
*21 net8
*22 ANTENNA_1
*23 FILLER_0_0_109
*24 FILLER_0_0_113
*25 FILLER_0_0_125
*26 FILLER_0_0_137
*27 FILLER_0_0_141
*28 FILLER_0_0_15
*29 FILLER_0_0_153
*30 FILLER_0_0_165
*31 FILLER_0_0_169
*32 FILLER_0_0_181
*33 FILLER_0_0_193
*34 FILLER_0_0_197
*35 FILLER_0_0_209
*36 FILLER_0_0_221
*37 FILLER_0_0_225
*38 FILLER_0_0_237
*39 FILLER_0_0_249
*40 FILLER_0_0_253
*41 FILLER_0_0_265
*42 FILLER_0_0_27
*43 FILLER_0_0_277
*44 FILLER_0_0_281
*45 FILLER_0_0_29
*46 FILLER_0_0_293
*47 FILLER_0_0_3
*48 FILLER_0_0_305
*49 FILLER_0_0_309
*50 FILLER_0_0_321
*51 FILLER_0_0_333
*52 FILLER_0_0_337
*53 FILLER_0_0_349
*54 FILLER_0_0_361
*55 FILLER_0_0_365
*56 FILLER_0_0_377
*57 FILLER_0_0_389
*58 FILLER_0_0_393
*59 FILLER_0_0_405
*60 FILLER_0_0_41
*61 FILLER_0_0_417
*62 FILLER_0_0_421
*63 FILLER_0_0_53
*64 FILLER_0_0_57
*65 FILLER_0_0_69
*66 FILLER_0_0_81
*67 FILLER_0_0_85
*68 FILLER_0_0_97
*69 FILLER_0_10_109
*70 FILLER_0_10_121
*71 FILLER_0_10_133
*72 FILLER_0_10_139
*73 FILLER_0_10_141
*74 FILLER_0_10_15
*75 FILLER_0_10_153
*76 FILLER_0_10_165
*77 FILLER_0_10_177
*78 FILLER_0_10_189
*79 FILLER_0_10_195
*80 FILLER_0_10_197
*81 FILLER_0_10_209
*82 FILLER_0_10_221
*83 FILLER_0_10_233
*84 FILLER_0_10_245
*85 FILLER_0_10_251
*86 FILLER_0_10_253
*87 FILLER_0_10_265
*88 FILLER_0_10_27
*89 FILLER_0_10_277
*90 FILLER_0_10_289
*91 FILLER_0_10_29
*92 FILLER_0_10_3
*93 FILLER_0_10_301
*94 FILLER_0_10_307
*95 FILLER_0_10_309
*96 FILLER_0_10_321
*97 FILLER_0_10_333
*98 FILLER_0_10_345
*99 FILLER_0_10_357
*100 FILLER_0_10_363
*101 FILLER_0_10_365
*102 FILLER_0_10_377
*103 FILLER_0_10_389
*104 FILLER_0_10_401
*105 FILLER_0_10_41
*106 FILLER_0_10_413
*107 FILLER_0_10_419
*108 FILLER_0_10_421
*109 FILLER_0_10_53
*110 FILLER_0_10_65
*111 FILLER_0_10_77
*112 FILLER_0_10_83
*113 FILLER_0_10_85
*114 FILLER_0_10_97
*115 FILLER_0_11_105
*116 FILLER_0_11_111
*117 FILLER_0_11_113
*118 FILLER_0_11_125
*119 FILLER_0_11_137
*120 FILLER_0_11_149
*121 FILLER_0_11_15
*122 FILLER_0_11_161
*123 FILLER_0_11_167
*124 FILLER_0_11_169
*125 FILLER_0_11_181
*126 FILLER_0_11_193
*127 FILLER_0_11_205
*128 FILLER_0_11_217
*129 FILLER_0_11_223
*130 FILLER_0_11_225
*131 FILLER_0_11_237
*132 FILLER_0_11_249
*133 FILLER_0_11_261
*134 FILLER_0_11_27
*135 FILLER_0_11_273
*136 FILLER_0_11_279
*137 FILLER_0_11_281
*138 FILLER_0_11_293
*139 FILLER_0_11_3
*140 FILLER_0_11_305
*141 FILLER_0_11_317
*142 FILLER_0_11_329
*143 FILLER_0_11_335
*144 FILLER_0_11_337
*145 FILLER_0_11_349
*146 FILLER_0_11_361
*147 FILLER_0_11_373
*148 FILLER_0_11_385
*149 FILLER_0_11_39
*150 FILLER_0_11_391
*151 FILLER_0_11_393
*152 FILLER_0_11_405
*153 FILLER_0_11_417
*154 FILLER_0_11_51
*155 FILLER_0_11_55
*156 FILLER_0_11_57
*157 FILLER_0_11_69
*158 FILLER_0_11_81
*159 FILLER_0_11_93
*160 FILLER_0_12_109
*161 FILLER_0_12_121
*162 FILLER_0_12_133
*163 FILLER_0_12_139
*164 FILLER_0_12_141
*165 FILLER_0_12_15
*166 FILLER_0_12_153
*167 FILLER_0_12_165
*168 FILLER_0_12_177
*169 FILLER_0_12_189
*170 FILLER_0_12_195
*171 FILLER_0_12_197
*172 FILLER_0_12_209
*173 FILLER_0_12_221
*174 FILLER_0_12_233
*175 FILLER_0_12_245
*176 FILLER_0_12_251
*177 FILLER_0_12_253
*178 FILLER_0_12_265
*179 FILLER_0_12_27
*180 FILLER_0_12_277
*181 FILLER_0_12_289
*182 FILLER_0_12_29
*183 FILLER_0_12_3
*184 FILLER_0_12_301
*185 FILLER_0_12_307
*186 FILLER_0_12_309
*187 FILLER_0_12_321
*188 FILLER_0_12_333
*189 FILLER_0_12_345
*190 FILLER_0_12_357
*191 FILLER_0_12_363
*192 FILLER_0_12_365
*193 FILLER_0_12_377
*194 FILLER_0_12_389
*195 FILLER_0_12_401
*196 FILLER_0_12_41
*197 FILLER_0_12_413
*198 FILLER_0_12_419
*199 FILLER_0_12_421
*200 FILLER_0_12_53
*201 FILLER_0_12_65
*202 FILLER_0_12_77
*203 FILLER_0_12_83
*204 FILLER_0_12_85
*205 FILLER_0_12_97
*206 FILLER_0_13_105
*207 FILLER_0_13_111
*208 FILLER_0_13_113
*209 FILLER_0_13_125
*210 FILLER_0_13_137
*211 FILLER_0_13_149
*212 FILLER_0_13_15
*213 FILLER_0_13_161
*214 FILLER_0_13_167
*215 FILLER_0_13_169
*216 FILLER_0_13_181
*217 FILLER_0_13_193
*218 FILLER_0_13_205
*219 FILLER_0_13_217
*220 FILLER_0_13_223
*221 FILLER_0_13_225
*222 FILLER_0_13_237
*223 FILLER_0_13_249
*224 FILLER_0_13_261
*225 FILLER_0_13_27
*226 FILLER_0_13_273
*227 FILLER_0_13_279
*228 FILLER_0_13_281
*229 FILLER_0_13_293
*230 FILLER_0_13_3
*231 FILLER_0_13_305
*232 FILLER_0_13_317
*233 FILLER_0_13_329
*234 FILLER_0_13_335
*235 FILLER_0_13_337
*236 FILLER_0_13_349
*237 FILLER_0_13_361
*238 FILLER_0_13_373
*239 FILLER_0_13_385
*240 FILLER_0_13_39
*241 FILLER_0_13_391
*242 FILLER_0_13_393
*243 FILLER_0_13_405
*244 FILLER_0_13_417
*245 FILLER_0_13_51
*246 FILLER_0_13_55
*247 FILLER_0_13_57
*248 FILLER_0_13_69
*249 FILLER_0_13_81
*250 FILLER_0_13_93
*251 FILLER_0_14_109
*252 FILLER_0_14_121
*253 FILLER_0_14_133
*254 FILLER_0_14_139
*255 FILLER_0_14_141
*256 FILLER_0_14_15
*257 FILLER_0_14_153
*258 FILLER_0_14_165
*259 FILLER_0_14_177
*260 FILLER_0_14_189
*261 FILLER_0_14_195
*262 FILLER_0_14_197
*263 FILLER_0_14_209
*264 FILLER_0_14_221
*265 FILLER_0_14_233
*266 FILLER_0_14_245
*267 FILLER_0_14_251
*268 FILLER_0_14_253
*269 FILLER_0_14_265
*270 FILLER_0_14_27
*271 FILLER_0_14_277
*272 FILLER_0_14_289
*273 FILLER_0_14_29
*274 FILLER_0_14_3
*275 FILLER_0_14_301
*276 FILLER_0_14_307
*277 FILLER_0_14_309
*278 FILLER_0_14_321
*279 FILLER_0_14_333
*280 FILLER_0_14_345
*281 FILLER_0_14_357
*282 FILLER_0_14_363
*283 FILLER_0_14_365
*284 FILLER_0_14_377
*285 FILLER_0_14_389
*286 FILLER_0_14_401
*287 FILLER_0_14_41
*288 FILLER_0_14_413
*289 FILLER_0_14_419
*290 FILLER_0_14_421
*291 FILLER_0_14_53
*292 FILLER_0_14_65
*293 FILLER_0_14_77
*294 FILLER_0_14_83
*295 FILLER_0_14_85
*296 FILLER_0_14_97
*297 FILLER_0_15_105
*298 FILLER_0_15_111
*299 FILLER_0_15_113
*300 FILLER_0_15_125
*301 FILLER_0_15_137
*302 FILLER_0_15_149
*303 FILLER_0_15_15
*304 FILLER_0_15_161
*305 FILLER_0_15_167
*306 FILLER_0_15_169
*307 FILLER_0_15_181
*308 FILLER_0_15_193
*309 FILLER_0_15_205
*310 FILLER_0_15_217
*311 FILLER_0_15_223
*312 FILLER_0_15_225
*313 FILLER_0_15_237
*314 FILLER_0_15_249
*315 FILLER_0_15_261
*316 FILLER_0_15_27
*317 FILLER_0_15_273
*318 FILLER_0_15_279
*319 FILLER_0_15_281
*320 FILLER_0_15_293
*321 FILLER_0_15_3
*322 FILLER_0_15_305
*323 FILLER_0_15_317
*324 FILLER_0_15_329
*325 FILLER_0_15_335
*326 FILLER_0_15_337
*327 FILLER_0_15_349
*328 FILLER_0_15_361
*329 FILLER_0_15_373
*330 FILLER_0_15_385
*331 FILLER_0_15_39
*332 FILLER_0_15_391
*333 FILLER_0_15_393
*334 FILLER_0_15_405
*335 FILLER_0_15_417
*336 FILLER_0_15_51
*337 FILLER_0_15_55
*338 FILLER_0_15_57
*339 FILLER_0_15_69
*340 FILLER_0_15_81
*341 FILLER_0_15_93
*342 FILLER_0_16_109
*343 FILLER_0_16_121
*344 FILLER_0_16_133
*345 FILLER_0_16_139
*346 FILLER_0_16_141
*347 FILLER_0_16_15
*348 FILLER_0_16_153
*349 FILLER_0_16_165
*350 FILLER_0_16_177
*351 FILLER_0_16_189
*352 FILLER_0_16_195
*353 FILLER_0_16_197
*354 FILLER_0_16_209
*355 FILLER_0_16_221
*356 FILLER_0_16_233
*357 FILLER_0_16_245
*358 FILLER_0_16_251
*359 FILLER_0_16_253
*360 FILLER_0_16_265
*361 FILLER_0_16_27
*362 FILLER_0_16_277
*363 FILLER_0_16_289
*364 FILLER_0_16_29
*365 FILLER_0_16_3
*366 FILLER_0_16_301
*367 FILLER_0_16_307
*368 FILLER_0_16_309
*369 FILLER_0_16_321
*370 FILLER_0_16_333
*371 FILLER_0_16_345
*372 FILLER_0_16_357
*373 FILLER_0_16_363
*374 FILLER_0_16_365
*375 FILLER_0_16_377
*376 FILLER_0_16_389
*377 FILLER_0_16_401
*378 FILLER_0_16_41
*379 FILLER_0_16_413
*380 FILLER_0_16_419
*381 FILLER_0_16_421
*382 FILLER_0_16_53
*383 FILLER_0_16_65
*384 FILLER_0_16_77
*385 FILLER_0_16_83
*386 FILLER_0_16_85
*387 FILLER_0_16_97
*388 FILLER_0_17_105
*389 FILLER_0_17_111
*390 FILLER_0_17_113
*391 FILLER_0_17_125
*392 FILLER_0_17_137
*393 FILLER_0_17_149
*394 FILLER_0_17_15
*395 FILLER_0_17_161
*396 FILLER_0_17_167
*397 FILLER_0_17_169
*398 FILLER_0_17_181
*399 FILLER_0_17_193
*400 FILLER_0_17_205
*401 FILLER_0_17_217
*402 FILLER_0_17_223
*403 FILLER_0_17_225
*404 FILLER_0_17_237
*405 FILLER_0_17_249
*406 FILLER_0_17_261
*407 FILLER_0_17_27
*408 FILLER_0_17_273
*409 FILLER_0_17_279
*410 FILLER_0_17_281
*411 FILLER_0_17_293
*412 FILLER_0_17_3
*413 FILLER_0_17_305
*414 FILLER_0_17_317
*415 FILLER_0_17_329
*416 FILLER_0_17_335
*417 FILLER_0_17_337
*418 FILLER_0_17_349
*419 FILLER_0_17_361
*420 FILLER_0_17_373
*421 FILLER_0_17_385
*422 FILLER_0_17_39
*423 FILLER_0_17_391
*424 FILLER_0_17_393
*425 FILLER_0_17_405
*426 FILLER_0_17_417
*427 FILLER_0_17_51
*428 FILLER_0_17_55
*429 FILLER_0_17_57
*430 FILLER_0_17_69
*431 FILLER_0_17_81
*432 FILLER_0_17_93
*433 FILLER_0_18_109
*434 FILLER_0_18_121
*435 FILLER_0_18_133
*436 FILLER_0_18_139
*437 FILLER_0_18_141
*438 FILLER_0_18_15
*439 FILLER_0_18_153
*440 FILLER_0_18_165
*441 FILLER_0_18_177
*442 FILLER_0_18_189
*443 FILLER_0_18_195
*444 FILLER_0_18_197
*445 FILLER_0_18_209
*446 FILLER_0_18_221
*447 FILLER_0_18_233
*448 FILLER_0_18_245
*449 FILLER_0_18_251
*450 FILLER_0_18_253
*451 FILLER_0_18_265
*452 FILLER_0_18_27
*453 FILLER_0_18_277
*454 FILLER_0_18_289
*455 FILLER_0_18_29
*456 FILLER_0_18_3
*457 FILLER_0_18_301
*458 FILLER_0_18_307
*459 FILLER_0_18_309
*460 FILLER_0_18_321
*461 FILLER_0_18_333
*462 FILLER_0_18_345
*463 FILLER_0_18_357
*464 FILLER_0_18_363
*465 FILLER_0_18_365
*466 FILLER_0_18_377
*467 FILLER_0_18_389
*468 FILLER_0_18_401
*469 FILLER_0_18_41
*470 FILLER_0_18_413
*471 FILLER_0_18_419
*472 FILLER_0_18_421
*473 FILLER_0_18_53
*474 FILLER_0_18_65
*475 FILLER_0_18_77
*476 FILLER_0_18_83
*477 FILLER_0_18_85
*478 FILLER_0_18_97
*479 FILLER_0_19_105
*480 FILLER_0_19_111
*481 FILLER_0_19_113
*482 FILLER_0_19_125
*483 FILLER_0_19_137
*484 FILLER_0_19_149
*485 FILLER_0_19_15
*486 FILLER_0_19_161
*487 FILLER_0_19_167
*488 FILLER_0_19_169
*489 FILLER_0_19_181
*490 FILLER_0_19_193
*491 FILLER_0_19_205
*492 FILLER_0_19_217
*493 FILLER_0_19_223
*494 FILLER_0_19_225
*495 FILLER_0_19_237
*496 FILLER_0_19_249
*497 FILLER_0_19_261
*498 FILLER_0_19_27
*499 FILLER_0_19_273
*500 FILLER_0_19_279
*501 FILLER_0_19_281
*502 FILLER_0_19_293
*503 FILLER_0_19_3
*504 FILLER_0_19_305
*505 FILLER_0_19_317
*506 FILLER_0_19_329
*507 FILLER_0_19_335
*508 FILLER_0_19_337
*509 FILLER_0_19_349
*510 FILLER_0_19_361
*511 FILLER_0_19_373
*512 FILLER_0_19_385
*513 FILLER_0_19_39
*514 FILLER_0_19_391
*515 FILLER_0_19_393
*516 FILLER_0_19_405
*517 FILLER_0_19_417
*518 FILLER_0_19_51
*519 FILLER_0_19_55
*520 FILLER_0_19_57
*521 FILLER_0_19_69
*522 FILLER_0_19_81
*523 FILLER_0_19_93
*524 FILLER_0_1_105
*525 FILLER_0_1_111
*526 FILLER_0_1_113
*527 FILLER_0_1_125
*528 FILLER_0_1_137
*529 FILLER_0_1_149
*530 FILLER_0_1_15
*531 FILLER_0_1_161
*532 FILLER_0_1_167
*533 FILLER_0_1_169
*534 FILLER_0_1_181
*535 FILLER_0_1_193
*536 FILLER_0_1_205
*537 FILLER_0_1_217
*538 FILLER_0_1_223
*539 FILLER_0_1_225
*540 FILLER_0_1_237
*541 FILLER_0_1_249
*542 FILLER_0_1_261
*543 FILLER_0_1_27
*544 FILLER_0_1_273
*545 FILLER_0_1_279
*546 FILLER_0_1_281
*547 FILLER_0_1_293
*548 FILLER_0_1_3
*549 FILLER_0_1_305
*550 FILLER_0_1_317
*551 FILLER_0_1_329
*552 FILLER_0_1_335
*553 FILLER_0_1_337
*554 FILLER_0_1_349
*555 FILLER_0_1_361
*556 FILLER_0_1_373
*557 FILLER_0_1_385
*558 FILLER_0_1_39
*559 FILLER_0_1_391
*560 FILLER_0_1_393
*561 FILLER_0_1_405
*562 FILLER_0_1_417
*563 FILLER_0_1_51
*564 FILLER_0_1_55
*565 FILLER_0_1_57
*566 FILLER_0_1_69
*567 FILLER_0_1_81
*568 FILLER_0_1_93
*569 FILLER_0_20_109
*570 FILLER_0_20_121
*571 FILLER_0_20_133
*572 FILLER_0_20_139
*573 FILLER_0_20_141
*574 FILLER_0_20_15
*575 FILLER_0_20_153
*576 FILLER_0_20_165
*577 FILLER_0_20_177
*578 FILLER_0_20_189
*579 FILLER_0_20_195
*580 FILLER_0_20_197
*581 FILLER_0_20_209
*582 FILLER_0_20_221
*583 FILLER_0_20_233
*584 FILLER_0_20_245
*585 FILLER_0_20_251
*586 FILLER_0_20_253
*587 FILLER_0_20_265
*588 FILLER_0_20_27
*589 FILLER_0_20_277
*590 FILLER_0_20_289
*591 FILLER_0_20_29
*592 FILLER_0_20_3
*593 FILLER_0_20_301
*594 FILLER_0_20_307
*595 FILLER_0_20_309
*596 FILLER_0_20_321
*597 FILLER_0_20_333
*598 FILLER_0_20_345
*599 FILLER_0_20_357
*600 FILLER_0_20_363
*601 FILLER_0_20_365
*602 FILLER_0_20_377
*603 FILLER_0_20_389
*604 FILLER_0_20_401
*605 FILLER_0_20_41
*606 FILLER_0_20_413
*607 FILLER_0_20_419
*608 FILLER_0_20_421
*609 FILLER_0_20_53
*610 FILLER_0_20_65
*611 FILLER_0_20_77
*612 FILLER_0_20_83
*613 FILLER_0_20_85
*614 FILLER_0_20_97
*615 FILLER_0_21_105
*616 FILLER_0_21_111
*617 FILLER_0_21_113
*618 FILLER_0_21_125
*619 FILLER_0_21_137
*620 FILLER_0_21_149
*621 FILLER_0_21_15
*622 FILLER_0_21_161
*623 FILLER_0_21_167
*624 FILLER_0_21_169
*625 FILLER_0_21_181
*626 FILLER_0_21_193
*627 FILLER_0_21_205
*628 FILLER_0_21_217
*629 FILLER_0_21_223
*630 FILLER_0_21_225
*631 FILLER_0_21_237
*632 FILLER_0_21_249
*633 FILLER_0_21_261
*634 FILLER_0_21_27
*635 FILLER_0_21_273
*636 FILLER_0_21_279
*637 FILLER_0_21_281
*638 FILLER_0_21_293
*639 FILLER_0_21_3
*640 FILLER_0_21_305
*641 FILLER_0_21_317
*642 FILLER_0_21_329
*643 FILLER_0_21_335
*644 FILLER_0_21_337
*645 FILLER_0_21_349
*646 FILLER_0_21_361
*647 FILLER_0_21_373
*648 FILLER_0_21_385
*649 FILLER_0_21_39
*650 FILLER_0_21_391
*651 FILLER_0_21_393
*652 FILLER_0_21_405
*653 FILLER_0_21_417
*654 FILLER_0_21_51
*655 FILLER_0_21_55
*656 FILLER_0_21_57
*657 FILLER_0_21_69
*658 FILLER_0_21_81
*659 FILLER_0_21_93
*660 FILLER_0_22_109
*661 FILLER_0_22_121
*662 FILLER_0_22_133
*663 FILLER_0_22_139
*664 FILLER_0_22_141
*665 FILLER_0_22_15
*666 FILLER_0_22_153
*667 FILLER_0_22_165
*668 FILLER_0_22_177
*669 FILLER_0_22_189
*670 FILLER_0_22_195
*671 FILLER_0_22_197
*672 FILLER_0_22_209
*673 FILLER_0_22_221
*674 FILLER_0_22_233
*675 FILLER_0_22_245
*676 FILLER_0_22_251
*677 FILLER_0_22_253
*678 FILLER_0_22_265
*679 FILLER_0_22_27
*680 FILLER_0_22_277
*681 FILLER_0_22_289
*682 FILLER_0_22_29
*683 FILLER_0_22_3
*684 FILLER_0_22_301
*685 FILLER_0_22_307
*686 FILLER_0_22_309
*687 FILLER_0_22_321
*688 FILLER_0_22_333
*689 FILLER_0_22_345
*690 FILLER_0_22_357
*691 FILLER_0_22_363
*692 FILLER_0_22_365
*693 FILLER_0_22_377
*694 FILLER_0_22_389
*695 FILLER_0_22_401
*696 FILLER_0_22_41
*697 FILLER_0_22_413
*698 FILLER_0_22_419
*699 FILLER_0_22_421
*700 FILLER_0_22_53
*701 FILLER_0_22_65
*702 FILLER_0_22_77
*703 FILLER_0_22_83
*704 FILLER_0_22_85
*705 FILLER_0_22_97
*706 FILLER_0_23_105
*707 FILLER_0_23_111
*708 FILLER_0_23_113
*709 FILLER_0_23_125
*710 FILLER_0_23_137
*711 FILLER_0_23_149
*712 FILLER_0_23_15
*713 FILLER_0_23_161
*714 FILLER_0_23_167
*715 FILLER_0_23_169
*716 FILLER_0_23_181
*717 FILLER_0_23_193
*718 FILLER_0_23_205
*719 FILLER_0_23_217
*720 FILLER_0_23_223
*721 FILLER_0_23_225
*722 FILLER_0_23_237
*723 FILLER_0_23_249
*724 FILLER_0_23_261
*725 FILLER_0_23_27
*726 FILLER_0_23_273
*727 FILLER_0_23_279
*728 FILLER_0_23_281
*729 FILLER_0_23_293
*730 FILLER_0_23_3
*731 FILLER_0_23_305
*732 FILLER_0_23_317
*733 FILLER_0_23_329
*734 FILLER_0_23_335
*735 FILLER_0_23_337
*736 FILLER_0_23_349
*737 FILLER_0_23_361
*738 FILLER_0_23_373
*739 FILLER_0_23_385
*740 FILLER_0_23_39
*741 FILLER_0_23_391
*742 FILLER_0_23_393
*743 FILLER_0_23_405
*744 FILLER_0_23_417
*745 FILLER_0_23_51
*746 FILLER_0_23_55
*747 FILLER_0_23_57
*748 FILLER_0_23_69
*749 FILLER_0_23_81
*750 FILLER_0_23_93
*751 FILLER_0_24_109
*752 FILLER_0_24_121
*753 FILLER_0_24_133
*754 FILLER_0_24_139
*755 FILLER_0_24_141
*756 FILLER_0_24_15
*757 FILLER_0_24_153
*758 FILLER_0_24_165
*759 FILLER_0_24_177
*760 FILLER_0_24_189
*761 FILLER_0_24_195
*762 FILLER_0_24_197
*763 FILLER_0_24_209
*764 FILLER_0_24_221
*765 FILLER_0_24_233
*766 FILLER_0_24_245
*767 FILLER_0_24_251
*768 FILLER_0_24_253
*769 FILLER_0_24_265
*770 FILLER_0_24_27
*771 FILLER_0_24_277
*772 FILLER_0_24_289
*773 FILLER_0_24_29
*774 FILLER_0_24_3
*775 FILLER_0_24_301
*776 FILLER_0_24_307
*777 FILLER_0_24_309
*778 FILLER_0_24_321
*779 FILLER_0_24_333
*780 FILLER_0_24_345
*781 FILLER_0_24_357
*782 FILLER_0_24_363
*783 FILLER_0_24_365
*784 FILLER_0_24_377
*785 FILLER_0_24_389
*786 FILLER_0_24_401
*787 FILLER_0_24_41
*788 FILLER_0_24_413
*789 FILLER_0_24_419
*790 FILLER_0_24_421
*791 FILLER_0_24_53
*792 FILLER_0_24_65
*793 FILLER_0_24_77
*794 FILLER_0_24_83
*795 FILLER_0_24_85
*796 FILLER_0_24_97
*797 FILLER_0_25_105
*798 FILLER_0_25_111
*799 FILLER_0_25_113
*800 FILLER_0_25_125
*801 FILLER_0_25_137
*802 FILLER_0_25_149
*803 FILLER_0_25_15
*804 FILLER_0_25_161
*805 FILLER_0_25_167
*806 FILLER_0_25_169
*807 FILLER_0_25_181
*808 FILLER_0_25_193
*809 FILLER_0_25_205
*810 FILLER_0_25_217
*811 FILLER_0_25_223
*812 FILLER_0_25_225
*813 FILLER_0_25_237
*814 FILLER_0_25_249
*815 FILLER_0_25_261
*816 FILLER_0_25_27
*817 FILLER_0_25_273
*818 FILLER_0_25_279
*819 FILLER_0_25_281
*820 FILLER_0_25_293
*821 FILLER_0_25_3
*822 FILLER_0_25_305
*823 FILLER_0_25_317
*824 FILLER_0_25_329
*825 FILLER_0_25_335
*826 FILLER_0_25_337
*827 FILLER_0_25_349
*828 FILLER_0_25_361
*829 FILLER_0_25_373
*830 FILLER_0_25_385
*831 FILLER_0_25_39
*832 FILLER_0_25_391
*833 FILLER_0_25_393
*834 FILLER_0_25_405
*835 FILLER_0_25_417
*836 FILLER_0_25_51
*837 FILLER_0_25_55
*838 FILLER_0_25_57
*839 FILLER_0_25_69
*840 FILLER_0_25_81
*841 FILLER_0_25_93
*842 FILLER_0_26_109
*843 FILLER_0_26_121
*844 FILLER_0_26_133
*845 FILLER_0_26_139
*846 FILLER_0_26_141
*847 FILLER_0_26_15
*848 FILLER_0_26_153
*849 FILLER_0_26_165
*850 FILLER_0_26_177
*851 FILLER_0_26_189
*852 FILLER_0_26_195
*853 FILLER_0_26_197
*854 FILLER_0_26_209
*855 FILLER_0_26_221
*856 FILLER_0_26_233
*857 FILLER_0_26_245
*858 FILLER_0_26_251
*859 FILLER_0_26_253
*860 FILLER_0_26_265
*861 FILLER_0_26_27
*862 FILLER_0_26_277
*863 FILLER_0_26_289
*864 FILLER_0_26_29
*865 FILLER_0_26_3
*866 FILLER_0_26_301
*867 FILLER_0_26_307
*868 FILLER_0_26_309
*869 FILLER_0_26_321
*870 FILLER_0_26_333
*871 FILLER_0_26_345
*872 FILLER_0_26_357
*873 FILLER_0_26_363
*874 FILLER_0_26_365
*875 FILLER_0_26_377
*876 FILLER_0_26_389
*877 FILLER_0_26_401
*878 FILLER_0_26_41
*879 FILLER_0_26_413
*880 FILLER_0_26_419
*881 FILLER_0_26_421
*882 FILLER_0_26_53
*883 FILLER_0_26_65
*884 FILLER_0_26_77
*885 FILLER_0_26_83
*886 FILLER_0_26_85
*887 FILLER_0_26_97
*888 FILLER_0_27_105
*889 FILLER_0_27_111
*890 FILLER_0_27_113
*891 FILLER_0_27_125
*892 FILLER_0_27_137
*893 FILLER_0_27_149
*894 FILLER_0_27_15
*895 FILLER_0_27_161
*896 FILLER_0_27_167
*897 FILLER_0_27_169
*898 FILLER_0_27_181
*899 FILLER_0_27_193
*900 FILLER_0_27_205
*901 FILLER_0_27_217
*902 FILLER_0_27_223
*903 FILLER_0_27_225
*904 FILLER_0_27_237
*905 FILLER_0_27_249
*906 FILLER_0_27_261
*907 FILLER_0_27_27
*908 FILLER_0_27_273
*909 FILLER_0_27_279
*910 FILLER_0_27_281
*911 FILLER_0_27_293
*912 FILLER_0_27_3
*913 FILLER_0_27_305
*914 FILLER_0_27_317
*915 FILLER_0_27_329
*916 FILLER_0_27_335
*917 FILLER_0_27_337
*918 FILLER_0_27_349
*919 FILLER_0_27_361
*920 FILLER_0_27_373
*921 FILLER_0_27_385
*922 FILLER_0_27_39
*923 FILLER_0_27_391
*924 FILLER_0_27_393
*925 FILLER_0_27_405
*926 FILLER_0_27_417
*927 FILLER_0_27_51
*928 FILLER_0_27_55
*929 FILLER_0_27_57
*930 FILLER_0_27_69
*931 FILLER_0_27_81
*932 FILLER_0_27_93
*933 FILLER_0_28_109
*934 FILLER_0_28_121
*935 FILLER_0_28_133
*936 FILLER_0_28_139
*937 FILLER_0_28_141
*938 FILLER_0_28_15
*939 FILLER_0_28_153
*940 FILLER_0_28_165
*941 FILLER_0_28_177
*942 FILLER_0_28_189
*943 FILLER_0_28_195
*944 FILLER_0_28_197
*945 FILLER_0_28_209
*946 FILLER_0_28_221
*947 FILLER_0_28_233
*948 FILLER_0_28_245
*949 FILLER_0_28_251
*950 FILLER_0_28_253
*951 FILLER_0_28_265
*952 FILLER_0_28_27
*953 FILLER_0_28_277
*954 FILLER_0_28_289
*955 FILLER_0_28_29
*956 FILLER_0_28_3
*957 FILLER_0_28_301
*958 FILLER_0_28_307
*959 FILLER_0_28_309
*960 FILLER_0_28_321
*961 FILLER_0_28_333
*962 FILLER_0_28_345
*963 FILLER_0_28_357
*964 FILLER_0_28_363
*965 FILLER_0_28_365
*966 FILLER_0_28_377
*967 FILLER_0_28_389
*968 FILLER_0_28_401
*969 FILLER_0_28_41
*970 FILLER_0_28_413
*971 FILLER_0_28_419
*972 FILLER_0_28_421
*973 FILLER_0_28_53
*974 FILLER_0_28_65
*975 FILLER_0_28_77
*976 FILLER_0_28_83
*977 FILLER_0_28_85
*978 FILLER_0_28_97
*979 FILLER_0_29_105
*980 FILLER_0_29_111
*981 FILLER_0_29_113
*982 FILLER_0_29_125
*983 FILLER_0_29_137
*984 FILLER_0_29_149
*985 FILLER_0_29_15
*986 FILLER_0_29_161
*987 FILLER_0_29_167
*988 FILLER_0_29_169
*989 FILLER_0_29_181
*990 FILLER_0_29_193
*991 FILLER_0_29_205
*992 FILLER_0_29_217
*993 FILLER_0_29_223
*994 FILLER_0_29_225
*995 FILLER_0_29_237
*996 FILLER_0_29_249
*997 FILLER_0_29_261
*998 FILLER_0_29_27
*999 FILLER_0_29_273
*1000 FILLER_0_29_279
*1001 FILLER_0_29_281
*1002 FILLER_0_29_293
*1003 FILLER_0_29_3
*1004 FILLER_0_29_305
*1005 FILLER_0_29_317
*1006 FILLER_0_29_329
*1007 FILLER_0_29_335
*1008 FILLER_0_29_337
*1009 FILLER_0_29_349
*1010 FILLER_0_29_361
*1011 FILLER_0_29_373
*1012 FILLER_0_29_385
*1013 FILLER_0_29_39
*1014 FILLER_0_29_391
*1015 FILLER_0_29_393
*1016 FILLER_0_29_405
*1017 FILLER_0_29_417
*1018 FILLER_0_29_51
*1019 FILLER_0_29_55
*1020 FILLER_0_29_57
*1021 FILLER_0_29_69
*1022 FILLER_0_29_81
*1023 FILLER_0_29_93
*1024 FILLER_0_2_109
*1025 FILLER_0_2_121
*1026 FILLER_0_2_133
*1027 FILLER_0_2_139
*1028 FILLER_0_2_141
*1029 FILLER_0_2_15
*1030 FILLER_0_2_153
*1031 FILLER_0_2_165
*1032 FILLER_0_2_177
*1033 FILLER_0_2_189
*1034 FILLER_0_2_195
*1035 FILLER_0_2_197
*1036 FILLER_0_2_209
*1037 FILLER_0_2_221
*1038 FILLER_0_2_233
*1039 FILLER_0_2_245
*1040 FILLER_0_2_251
*1041 FILLER_0_2_253
*1042 FILLER_0_2_265
*1043 FILLER_0_2_27
*1044 FILLER_0_2_277
*1045 FILLER_0_2_289
*1046 FILLER_0_2_29
*1047 FILLER_0_2_3
*1048 FILLER_0_2_301
*1049 FILLER_0_2_307
*1050 FILLER_0_2_309
*1051 FILLER_0_2_321
*1052 FILLER_0_2_333
*1053 FILLER_0_2_345
*1054 FILLER_0_2_357
*1055 FILLER_0_2_363
*1056 FILLER_0_2_365
*1057 FILLER_0_2_377
*1058 FILLER_0_2_389
*1059 FILLER_0_2_401
*1060 FILLER_0_2_41
*1061 FILLER_0_2_413
*1062 FILLER_0_2_419
*1063 FILLER_0_2_421
*1064 FILLER_0_2_53
*1065 FILLER_0_2_65
*1066 FILLER_0_2_77
*1067 FILLER_0_2_83
*1068 FILLER_0_2_85
*1069 FILLER_0_2_97
*1070 FILLER_0_30_109
*1071 FILLER_0_30_121
*1072 FILLER_0_30_133
*1073 FILLER_0_30_139
*1074 FILLER_0_30_141
*1075 FILLER_0_30_15
*1076 FILLER_0_30_153
*1077 FILLER_0_30_165
*1078 FILLER_0_30_177
*1079 FILLER_0_30_189
*1080 FILLER_0_30_195
*1081 FILLER_0_30_197
*1082 FILLER_0_30_209
*1083 FILLER_0_30_221
*1084 FILLER_0_30_233
*1085 FILLER_0_30_245
*1086 FILLER_0_30_251
*1087 FILLER_0_30_253
*1088 FILLER_0_30_265
*1089 FILLER_0_30_27
*1090 FILLER_0_30_277
*1091 FILLER_0_30_289
*1092 FILLER_0_30_29
*1093 FILLER_0_30_3
*1094 FILLER_0_30_301
*1095 FILLER_0_30_307
*1096 FILLER_0_30_309
*1097 FILLER_0_30_321
*1098 FILLER_0_30_333
*1099 FILLER_0_30_345
*1100 FILLER_0_30_357
*1101 FILLER_0_30_363
*1102 FILLER_0_30_365
*1103 FILLER_0_30_377
*1104 FILLER_0_30_389
*1105 FILLER_0_30_401
*1106 FILLER_0_30_41
*1107 FILLER_0_30_413
*1108 FILLER_0_30_419
*1109 FILLER_0_30_421
*1110 FILLER_0_30_53
*1111 FILLER_0_30_65
*1112 FILLER_0_30_77
*1113 FILLER_0_30_83
*1114 FILLER_0_30_85
*1115 FILLER_0_30_97
*1116 FILLER_0_31_105
*1117 FILLER_0_31_111
*1118 FILLER_0_31_113
*1119 FILLER_0_31_125
*1120 FILLER_0_31_137
*1121 FILLER_0_31_149
*1122 FILLER_0_31_161
*1123 FILLER_0_31_167
*1124 FILLER_0_31_169
*1125 FILLER_0_31_18
*1126 FILLER_0_31_181
*1127 FILLER_0_31_193
*1128 FILLER_0_31_205
*1129 FILLER_0_31_209
*1130 FILLER_0_31_218
*1131 FILLER_0_31_225
*1132 FILLER_0_31_237
*1133 FILLER_0_31_249
*1134 FILLER_0_31_261
*1135 FILLER_0_31_273
*1136 FILLER_0_31_279
*1137 FILLER_0_31_281
*1138 FILLER_0_31_293
*1139 FILLER_0_31_30
*1140 FILLER_0_31_305
*1141 FILLER_0_31_317
*1142 FILLER_0_31_329
*1143 FILLER_0_31_335
*1144 FILLER_0_31_337
*1145 FILLER_0_31_349
*1146 FILLER_0_31_361
*1147 FILLER_0_31_373
*1148 FILLER_0_31_385
*1149 FILLER_0_31_391
*1150 FILLER_0_31_393
*1151 FILLER_0_31_405
*1152 FILLER_0_31_417
*1153 FILLER_0_31_42
*1154 FILLER_0_31_54
*1155 FILLER_0_31_57
*1156 FILLER_0_31_6
*1157 FILLER_0_31_69
*1158 FILLER_0_31_81
*1159 FILLER_0_31_93
*1160 FILLER_0_32_109
*1161 FILLER_0_32_121
*1162 FILLER_0_32_13
*1163 FILLER_0_32_133
*1164 FILLER_0_32_139
*1165 FILLER_0_32_141
*1166 FILLER_0_32_153
*1167 FILLER_0_32_165
*1168 FILLER_0_32_177
*1169 FILLER_0_32_189
*1170 FILLER_0_32_195
*1171 FILLER_0_32_197
*1172 FILLER_0_32_203
*1173 FILLER_0_32_222
*1174 FILLER_0_32_234
*1175 FILLER_0_32_246
*1176 FILLER_0_32_25
*1177 FILLER_0_32_253
*1178 FILLER_0_32_265
*1179 FILLER_0_32_277
*1180 FILLER_0_32_289
*1181 FILLER_0_32_29
*1182 FILLER_0_32_301
*1183 FILLER_0_32_307
*1184 FILLER_0_32_309
*1185 FILLER_0_32_321
*1186 FILLER_0_32_333
*1187 FILLER_0_32_345
*1188 FILLER_0_32_357
*1189 FILLER_0_32_363
*1190 FILLER_0_32_365
*1191 FILLER_0_32_377
*1192 FILLER_0_32_389
*1193 FILLER_0_32_401
*1194 FILLER_0_32_41
*1195 FILLER_0_32_413
*1196 FILLER_0_32_421
*1197 FILLER_0_32_53
*1198 FILLER_0_32_65
*1199 FILLER_0_32_77
*1200 FILLER_0_32_83
*1201 FILLER_0_32_85
*1202 FILLER_0_32_97
*1203 FILLER_0_33_105
*1204 FILLER_0_33_111
*1205 FILLER_0_33_113
*1206 FILLER_0_33_125
*1207 FILLER_0_33_137
*1208 FILLER_0_33_149
*1209 FILLER_0_33_15
*1210 FILLER_0_33_161
*1211 FILLER_0_33_167
*1212 FILLER_0_33_169
*1213 FILLER_0_33_181
*1214 FILLER_0_33_193
*1215 FILLER_0_33_205
*1216 FILLER_0_33_209
*1217 FILLER_0_33_218
*1218 FILLER_0_33_225
*1219 FILLER_0_33_237
*1220 FILLER_0_33_249
*1221 FILLER_0_33_261
*1222 FILLER_0_33_27
*1223 FILLER_0_33_273
*1224 FILLER_0_33_279
*1225 FILLER_0_33_281
*1226 FILLER_0_33_293
*1227 FILLER_0_33_3
*1228 FILLER_0_33_305
*1229 FILLER_0_33_317
*1230 FILLER_0_33_329
*1231 FILLER_0_33_335
*1232 FILLER_0_33_337
*1233 FILLER_0_33_349
*1234 FILLER_0_33_361
*1235 FILLER_0_33_373
*1236 FILLER_0_33_385
*1237 FILLER_0_33_39
*1238 FILLER_0_33_391
*1239 FILLER_0_33_393
*1240 FILLER_0_33_405
*1241 FILLER_0_33_417
*1242 FILLER_0_33_51
*1243 FILLER_0_33_55
*1244 FILLER_0_33_57
*1245 FILLER_0_33_69
*1246 FILLER_0_33_81
*1247 FILLER_0_33_93
*1248 FILLER_0_34_109
*1249 FILLER_0_34_121
*1250 FILLER_0_34_133
*1251 FILLER_0_34_139
*1252 FILLER_0_34_141
*1253 FILLER_0_34_153
*1254 FILLER_0_34_165
*1255 FILLER_0_34_177
*1256 FILLER_0_34_18
*1257 FILLER_0_34_189
*1258 FILLER_0_34_195
*1259 FILLER_0_34_197
*1260 FILLER_0_34_209
*1261 FILLER_0_34_221
*1262 FILLER_0_34_233
*1263 FILLER_0_34_245
*1264 FILLER_0_34_251
*1265 FILLER_0_34_253
*1266 FILLER_0_34_26
*1267 FILLER_0_34_265
*1268 FILLER_0_34_277
*1269 FILLER_0_34_289
*1270 FILLER_0_34_29
*1271 FILLER_0_34_301
*1272 FILLER_0_34_307
*1273 FILLER_0_34_309
*1274 FILLER_0_34_321
*1275 FILLER_0_34_333
*1276 FILLER_0_34_345
*1277 FILLER_0_34_357
*1278 FILLER_0_34_363
*1279 FILLER_0_34_365
*1280 FILLER_0_34_377
*1281 FILLER_0_34_389
*1282 FILLER_0_34_401
*1283 FILLER_0_34_409
*1284 FILLER_0_34_41
*1285 FILLER_0_34_414
*1286 FILLER_0_34_421
*1287 FILLER_0_34_53
*1288 FILLER_0_34_6
*1289 FILLER_0_34_65
*1290 FILLER_0_34_77
*1291 FILLER_0_34_83
*1292 FILLER_0_34_85
*1293 FILLER_0_34_97
*1294 FILLER_0_35_105
*1295 FILLER_0_35_111
*1296 FILLER_0_35_113
*1297 FILLER_0_35_125
*1298 FILLER_0_35_137
*1299 FILLER_0_35_149
*1300 FILLER_0_35_161
*1301 FILLER_0_35_167
*1302 FILLER_0_35_169
*1303 FILLER_0_35_181
*1304 FILLER_0_35_19
*1305 FILLER_0_35_193
*1306 FILLER_0_35_205
*1307 FILLER_0_35_217
*1308 FILLER_0_35_223
*1309 FILLER_0_35_225
*1310 FILLER_0_35_237
*1311 FILLER_0_35_249
*1312 FILLER_0_35_261
*1313 FILLER_0_35_273
*1314 FILLER_0_35_279
*1315 FILLER_0_35_281
*1316 FILLER_0_35_293
*1317 FILLER_0_35_305
*1318 FILLER_0_35_31
*1319 FILLER_0_35_317
*1320 FILLER_0_35_329
*1321 FILLER_0_35_335
*1322 FILLER_0_35_337
*1323 FILLER_0_35_349
*1324 FILLER_0_35_361
*1325 FILLER_0_35_373
*1326 FILLER_0_35_385
*1327 FILLER_0_35_391
*1328 FILLER_0_35_393
*1329 FILLER_0_35_405
*1330 FILLER_0_35_417
*1331 FILLER_0_35_43
*1332 FILLER_0_35_55
*1333 FILLER_0_35_57
*1334 FILLER_0_35_69
*1335 FILLER_0_35_7
*1336 FILLER_0_35_81
*1337 FILLER_0_35_93
*1338 FILLER_0_36_109
*1339 FILLER_0_36_121
*1340 FILLER_0_36_133
*1341 FILLER_0_36_139
*1342 FILLER_0_36_141
*1343 FILLER_0_36_15
*1344 FILLER_0_36_153
*1345 FILLER_0_36_165
*1346 FILLER_0_36_177
*1347 FILLER_0_36_189
*1348 FILLER_0_36_195
*1349 FILLER_0_36_197
*1350 FILLER_0_36_209
*1351 FILLER_0_36_221
*1352 FILLER_0_36_233
*1353 FILLER_0_36_245
*1354 FILLER_0_36_251
*1355 FILLER_0_36_253
*1356 FILLER_0_36_265
*1357 FILLER_0_36_27
*1358 FILLER_0_36_277
*1359 FILLER_0_36_289
*1360 FILLER_0_36_29
*1361 FILLER_0_36_3
*1362 FILLER_0_36_301
*1363 FILLER_0_36_307
*1364 FILLER_0_36_309
*1365 FILLER_0_36_321
*1366 FILLER_0_36_333
*1367 FILLER_0_36_345
*1368 FILLER_0_36_357
*1369 FILLER_0_36_363
*1370 FILLER_0_36_365
*1371 FILLER_0_36_377
*1372 FILLER_0_36_389
*1373 FILLER_0_36_401
*1374 FILLER_0_36_41
*1375 FILLER_0_36_413
*1376 FILLER_0_36_419
*1377 FILLER_0_36_421
*1378 FILLER_0_36_53
*1379 FILLER_0_36_65
*1380 FILLER_0_36_77
*1381 FILLER_0_36_83
*1382 FILLER_0_36_85
*1383 FILLER_0_36_97
*1384 FILLER_0_37_105
*1385 FILLER_0_37_111
*1386 FILLER_0_37_113
*1387 FILLER_0_37_125
*1388 FILLER_0_37_137
*1389 FILLER_0_37_149
*1390 FILLER_0_37_15
*1391 FILLER_0_37_161
*1392 FILLER_0_37_167
*1393 FILLER_0_37_169
*1394 FILLER_0_37_181
*1395 FILLER_0_37_193
*1396 FILLER_0_37_205
*1397 FILLER_0_37_217
*1398 FILLER_0_37_223
*1399 FILLER_0_37_225
*1400 FILLER_0_37_237
*1401 FILLER_0_37_249
*1402 FILLER_0_37_261
*1403 FILLER_0_37_27
*1404 FILLER_0_37_273
*1405 FILLER_0_37_279
*1406 FILLER_0_37_281
*1407 FILLER_0_37_293
*1408 FILLER_0_37_3
*1409 FILLER_0_37_305
*1410 FILLER_0_37_317
*1411 FILLER_0_37_329
*1412 FILLER_0_37_335
*1413 FILLER_0_37_337
*1414 FILLER_0_37_349
*1415 FILLER_0_37_361
*1416 FILLER_0_37_373
*1417 FILLER_0_37_385
*1418 FILLER_0_37_39
*1419 FILLER_0_37_391
*1420 FILLER_0_37_393
*1421 FILLER_0_37_405
*1422 FILLER_0_37_417
*1423 FILLER_0_37_51
*1424 FILLER_0_37_55
*1425 FILLER_0_37_57
*1426 FILLER_0_37_69
*1427 FILLER_0_37_81
*1428 FILLER_0_37_93
*1429 FILLER_0_38_109
*1430 FILLER_0_38_121
*1431 FILLER_0_38_133
*1432 FILLER_0_38_139
*1433 FILLER_0_38_141
*1434 FILLER_0_38_15
*1435 FILLER_0_38_153
*1436 FILLER_0_38_165
*1437 FILLER_0_38_177
*1438 FILLER_0_38_189
*1439 FILLER_0_38_195
*1440 FILLER_0_38_197
*1441 FILLER_0_38_209
*1442 FILLER_0_38_221
*1443 FILLER_0_38_233
*1444 FILLER_0_38_245
*1445 FILLER_0_38_251
*1446 FILLER_0_38_253
*1447 FILLER_0_38_265
*1448 FILLER_0_38_27
*1449 FILLER_0_38_277
*1450 FILLER_0_38_289
*1451 FILLER_0_38_29
*1452 FILLER_0_38_3
*1453 FILLER_0_38_301
*1454 FILLER_0_38_307
*1455 FILLER_0_38_309
*1456 FILLER_0_38_321
*1457 FILLER_0_38_333
*1458 FILLER_0_38_345
*1459 FILLER_0_38_357
*1460 FILLER_0_38_363
*1461 FILLER_0_38_365
*1462 FILLER_0_38_377
*1463 FILLER_0_38_389
*1464 FILLER_0_38_401
*1465 FILLER_0_38_41
*1466 FILLER_0_38_413
*1467 FILLER_0_38_419
*1468 FILLER_0_38_421
*1469 FILLER_0_38_53
*1470 FILLER_0_38_65
*1471 FILLER_0_38_77
*1472 FILLER_0_38_83
*1473 FILLER_0_38_85
*1474 FILLER_0_38_97
*1475 FILLER_0_39_105
*1476 FILLER_0_39_111
*1477 FILLER_0_39_113
*1478 FILLER_0_39_125
*1479 FILLER_0_39_137
*1480 FILLER_0_39_149
*1481 FILLER_0_39_15
*1482 FILLER_0_39_161
*1483 FILLER_0_39_167
*1484 FILLER_0_39_169
*1485 FILLER_0_39_181
*1486 FILLER_0_39_193
*1487 FILLER_0_39_205
*1488 FILLER_0_39_217
*1489 FILLER_0_39_223
*1490 FILLER_0_39_225
*1491 FILLER_0_39_237
*1492 FILLER_0_39_249
*1493 FILLER_0_39_261
*1494 FILLER_0_39_27
*1495 FILLER_0_39_273
*1496 FILLER_0_39_279
*1497 FILLER_0_39_281
*1498 FILLER_0_39_293
*1499 FILLER_0_39_3
*1500 FILLER_0_39_305
*1501 FILLER_0_39_317
*1502 FILLER_0_39_329
*1503 FILLER_0_39_335
*1504 FILLER_0_39_337
*1505 FILLER_0_39_349
*1506 FILLER_0_39_361
*1507 FILLER_0_39_373
*1508 FILLER_0_39_385
*1509 FILLER_0_39_39
*1510 FILLER_0_39_391
*1511 FILLER_0_39_393
*1512 FILLER_0_39_405
*1513 FILLER_0_39_417
*1514 FILLER_0_39_51
*1515 FILLER_0_39_55
*1516 FILLER_0_39_57
*1517 FILLER_0_39_69
*1518 FILLER_0_39_81
*1519 FILLER_0_39_93
*1520 FILLER_0_3_105
*1521 FILLER_0_3_111
*1522 FILLER_0_3_113
*1523 FILLER_0_3_125
*1524 FILLER_0_3_137
*1525 FILLER_0_3_149
*1526 FILLER_0_3_15
*1527 FILLER_0_3_161
*1528 FILLER_0_3_167
*1529 FILLER_0_3_169
*1530 FILLER_0_3_181
*1531 FILLER_0_3_193
*1532 FILLER_0_3_205
*1533 FILLER_0_3_217
*1534 FILLER_0_3_223
*1535 FILLER_0_3_225
*1536 FILLER_0_3_237
*1537 FILLER_0_3_249
*1538 FILLER_0_3_261
*1539 FILLER_0_3_27
*1540 FILLER_0_3_273
*1541 FILLER_0_3_279
*1542 FILLER_0_3_281
*1543 FILLER_0_3_293
*1544 FILLER_0_3_3
*1545 FILLER_0_3_305
*1546 FILLER_0_3_317
*1547 FILLER_0_3_329
*1548 FILLER_0_3_335
*1549 FILLER_0_3_337
*1550 FILLER_0_3_349
*1551 FILLER_0_3_361
*1552 FILLER_0_3_373
*1553 FILLER_0_3_385
*1554 FILLER_0_3_39
*1555 FILLER_0_3_391
*1556 FILLER_0_3_393
*1557 FILLER_0_3_405
*1558 FILLER_0_3_417
*1559 FILLER_0_3_51
*1560 FILLER_0_3_55
*1561 FILLER_0_3_57
*1562 FILLER_0_3_69
*1563 FILLER_0_3_81
*1564 FILLER_0_3_93
*1565 FILLER_0_40_109
*1566 FILLER_0_40_121
*1567 FILLER_0_40_133
*1568 FILLER_0_40_139
*1569 FILLER_0_40_141
*1570 FILLER_0_40_15
*1571 FILLER_0_40_153
*1572 FILLER_0_40_165
*1573 FILLER_0_40_177
*1574 FILLER_0_40_189
*1575 FILLER_0_40_195
*1576 FILLER_0_40_197
*1577 FILLER_0_40_209
*1578 FILLER_0_40_221
*1579 FILLER_0_40_233
*1580 FILLER_0_40_245
*1581 FILLER_0_40_251
*1582 FILLER_0_40_253
*1583 FILLER_0_40_265
*1584 FILLER_0_40_27
*1585 FILLER_0_40_277
*1586 FILLER_0_40_289
*1587 FILLER_0_40_29
*1588 FILLER_0_40_3
*1589 FILLER_0_40_301
*1590 FILLER_0_40_307
*1591 FILLER_0_40_309
*1592 FILLER_0_40_321
*1593 FILLER_0_40_333
*1594 FILLER_0_40_345
*1595 FILLER_0_40_357
*1596 FILLER_0_40_363
*1597 FILLER_0_40_365
*1598 FILLER_0_40_377
*1599 FILLER_0_40_389
*1600 FILLER_0_40_401
*1601 FILLER_0_40_41
*1602 FILLER_0_40_413
*1603 FILLER_0_40_419
*1604 FILLER_0_40_421
*1605 FILLER_0_40_53
*1606 FILLER_0_40_65
*1607 FILLER_0_40_77
*1608 FILLER_0_40_83
*1609 FILLER_0_40_85
*1610 FILLER_0_40_97
*1611 FILLER_0_41_105
*1612 FILLER_0_41_111
*1613 FILLER_0_41_113
*1614 FILLER_0_41_125
*1615 FILLER_0_41_137
*1616 FILLER_0_41_149
*1617 FILLER_0_41_15
*1618 FILLER_0_41_161
*1619 FILLER_0_41_167
*1620 FILLER_0_41_169
*1621 FILLER_0_41_181
*1622 FILLER_0_41_193
*1623 FILLER_0_41_205
*1624 FILLER_0_41_217
*1625 FILLER_0_41_223
*1626 FILLER_0_41_225
*1627 FILLER_0_41_237
*1628 FILLER_0_41_249
*1629 FILLER_0_41_261
*1630 FILLER_0_41_27
*1631 FILLER_0_41_273
*1632 FILLER_0_41_279
*1633 FILLER_0_41_281
*1634 FILLER_0_41_293
*1635 FILLER_0_41_3
*1636 FILLER_0_41_305
*1637 FILLER_0_41_317
*1638 FILLER_0_41_329
*1639 FILLER_0_41_335
*1640 FILLER_0_41_337
*1641 FILLER_0_41_349
*1642 FILLER_0_41_361
*1643 FILLER_0_41_373
*1644 FILLER_0_41_385
*1645 FILLER_0_41_39
*1646 FILLER_0_41_391
*1647 FILLER_0_41_393
*1648 FILLER_0_41_405
*1649 FILLER_0_41_417
*1650 FILLER_0_41_51
*1651 FILLER_0_41_55
*1652 FILLER_0_41_57
*1653 FILLER_0_41_69
*1654 FILLER_0_41_81
*1655 FILLER_0_41_93
*1656 FILLER_0_42_109
*1657 FILLER_0_42_121
*1658 FILLER_0_42_133
*1659 FILLER_0_42_139
*1660 FILLER_0_42_141
*1661 FILLER_0_42_15
*1662 FILLER_0_42_153
*1663 FILLER_0_42_165
*1664 FILLER_0_42_177
*1665 FILLER_0_42_189
*1666 FILLER_0_42_195
*1667 FILLER_0_42_197
*1668 FILLER_0_42_209
*1669 FILLER_0_42_221
*1670 FILLER_0_42_233
*1671 FILLER_0_42_245
*1672 FILLER_0_42_251
*1673 FILLER_0_42_253
*1674 FILLER_0_42_265
*1675 FILLER_0_42_27
*1676 FILLER_0_42_277
*1677 FILLER_0_42_289
*1678 FILLER_0_42_29
*1679 FILLER_0_42_3
*1680 FILLER_0_42_301
*1681 FILLER_0_42_307
*1682 FILLER_0_42_309
*1683 FILLER_0_42_321
*1684 FILLER_0_42_333
*1685 FILLER_0_42_345
*1686 FILLER_0_42_357
*1687 FILLER_0_42_363
*1688 FILLER_0_42_365
*1689 FILLER_0_42_377
*1690 FILLER_0_42_389
*1691 FILLER_0_42_401
*1692 FILLER_0_42_41
*1693 FILLER_0_42_413
*1694 FILLER_0_42_419
*1695 FILLER_0_42_421
*1696 FILLER_0_42_53
*1697 FILLER_0_42_65
*1698 FILLER_0_42_77
*1699 FILLER_0_42_83
*1700 FILLER_0_42_85
*1701 FILLER_0_42_97
*1702 FILLER_0_43_105
*1703 FILLER_0_43_111
*1704 FILLER_0_43_113
*1705 FILLER_0_43_125
*1706 FILLER_0_43_137
*1707 FILLER_0_43_149
*1708 FILLER_0_43_15
*1709 FILLER_0_43_161
*1710 FILLER_0_43_167
*1711 FILLER_0_43_169
*1712 FILLER_0_43_181
*1713 FILLER_0_43_193
*1714 FILLER_0_43_205
*1715 FILLER_0_43_217
*1716 FILLER_0_43_223
*1717 FILLER_0_43_225
*1718 FILLER_0_43_237
*1719 FILLER_0_43_249
*1720 FILLER_0_43_261
*1721 FILLER_0_43_27
*1722 FILLER_0_43_273
*1723 FILLER_0_43_279
*1724 FILLER_0_43_281
*1725 FILLER_0_43_293
*1726 FILLER_0_43_3
*1727 FILLER_0_43_305
*1728 FILLER_0_43_317
*1729 FILLER_0_43_329
*1730 FILLER_0_43_335
*1731 FILLER_0_43_337
*1732 FILLER_0_43_349
*1733 FILLER_0_43_361
*1734 FILLER_0_43_373
*1735 FILLER_0_43_385
*1736 FILLER_0_43_39
*1737 FILLER_0_43_391
*1738 FILLER_0_43_393
*1739 FILLER_0_43_405
*1740 FILLER_0_43_417
*1741 FILLER_0_43_51
*1742 FILLER_0_43_55
*1743 FILLER_0_43_57
*1744 FILLER_0_43_69
*1745 FILLER_0_43_81
*1746 FILLER_0_43_93
*1747 FILLER_0_44_109
*1748 FILLER_0_44_121
*1749 FILLER_0_44_133
*1750 FILLER_0_44_139
*1751 FILLER_0_44_141
*1752 FILLER_0_44_15
*1753 FILLER_0_44_153
*1754 FILLER_0_44_165
*1755 FILLER_0_44_177
*1756 FILLER_0_44_189
*1757 FILLER_0_44_195
*1758 FILLER_0_44_197
*1759 FILLER_0_44_209
*1760 FILLER_0_44_221
*1761 FILLER_0_44_233
*1762 FILLER_0_44_245
*1763 FILLER_0_44_251
*1764 FILLER_0_44_253
*1765 FILLER_0_44_265
*1766 FILLER_0_44_27
*1767 FILLER_0_44_277
*1768 FILLER_0_44_289
*1769 FILLER_0_44_29
*1770 FILLER_0_44_3
*1771 FILLER_0_44_301
*1772 FILLER_0_44_307
*1773 FILLER_0_44_309
*1774 FILLER_0_44_321
*1775 FILLER_0_44_333
*1776 FILLER_0_44_345
*1777 FILLER_0_44_357
*1778 FILLER_0_44_363
*1779 FILLER_0_44_365
*1780 FILLER_0_44_377
*1781 FILLER_0_44_389
*1782 FILLER_0_44_401
*1783 FILLER_0_44_41
*1784 FILLER_0_44_413
*1785 FILLER_0_44_419
*1786 FILLER_0_44_421
*1787 FILLER_0_44_53
*1788 FILLER_0_44_65
*1789 FILLER_0_44_77
*1790 FILLER_0_44_83
*1791 FILLER_0_44_85
*1792 FILLER_0_44_97
*1793 FILLER_0_45_105
*1794 FILLER_0_45_111
*1795 FILLER_0_45_113
*1796 FILLER_0_45_125
*1797 FILLER_0_45_137
*1798 FILLER_0_45_149
*1799 FILLER_0_45_15
*1800 FILLER_0_45_161
*1801 FILLER_0_45_167
*1802 FILLER_0_45_169
*1803 FILLER_0_45_181
*1804 FILLER_0_45_193
*1805 FILLER_0_45_205
*1806 FILLER_0_45_217
*1807 FILLER_0_45_223
*1808 FILLER_0_45_225
*1809 FILLER_0_45_237
*1810 FILLER_0_45_249
*1811 FILLER_0_45_261
*1812 FILLER_0_45_27
*1813 FILLER_0_45_273
*1814 FILLER_0_45_279
*1815 FILLER_0_45_281
*1816 FILLER_0_45_293
*1817 FILLER_0_45_3
*1818 FILLER_0_45_305
*1819 FILLER_0_45_317
*1820 FILLER_0_45_329
*1821 FILLER_0_45_335
*1822 FILLER_0_45_337
*1823 FILLER_0_45_349
*1824 FILLER_0_45_361
*1825 FILLER_0_45_373
*1826 FILLER_0_45_385
*1827 FILLER_0_45_39
*1828 FILLER_0_45_391
*1829 FILLER_0_45_393
*1830 FILLER_0_45_405
*1831 FILLER_0_45_417
*1832 FILLER_0_45_51
*1833 FILLER_0_45_55
*1834 FILLER_0_45_57
*1835 FILLER_0_45_69
*1836 FILLER_0_45_81
*1837 FILLER_0_45_93
*1838 FILLER_0_46_109
*1839 FILLER_0_46_121
*1840 FILLER_0_46_133
*1841 FILLER_0_46_139
*1842 FILLER_0_46_141
*1843 FILLER_0_46_15
*1844 FILLER_0_46_153
*1845 FILLER_0_46_165
*1846 FILLER_0_46_177
*1847 FILLER_0_46_189
*1848 FILLER_0_46_195
*1849 FILLER_0_46_197
*1850 FILLER_0_46_209
*1851 FILLER_0_46_221
*1852 FILLER_0_46_233
*1853 FILLER_0_46_245
*1854 FILLER_0_46_251
*1855 FILLER_0_46_253
*1856 FILLER_0_46_265
*1857 FILLER_0_46_27
*1858 FILLER_0_46_277
*1859 FILLER_0_46_289
*1860 FILLER_0_46_29
*1861 FILLER_0_46_3
*1862 FILLER_0_46_301
*1863 FILLER_0_46_307
*1864 FILLER_0_46_309
*1865 FILLER_0_46_321
*1866 FILLER_0_46_333
*1867 FILLER_0_46_345
*1868 FILLER_0_46_357
*1869 FILLER_0_46_363
*1870 FILLER_0_46_365
*1871 FILLER_0_46_377
*1872 FILLER_0_46_389
*1873 FILLER_0_46_401
*1874 FILLER_0_46_41
*1875 FILLER_0_46_413
*1876 FILLER_0_46_419
*1877 FILLER_0_46_421
*1878 FILLER_0_46_53
*1879 FILLER_0_46_65
*1880 FILLER_0_46_77
*1881 FILLER_0_46_83
*1882 FILLER_0_46_85
*1883 FILLER_0_46_97
*1884 FILLER_0_47_105
*1885 FILLER_0_47_111
*1886 FILLER_0_47_113
*1887 FILLER_0_47_125
*1888 FILLER_0_47_137
*1889 FILLER_0_47_149
*1890 FILLER_0_47_15
*1891 FILLER_0_47_161
*1892 FILLER_0_47_167
*1893 FILLER_0_47_169
*1894 FILLER_0_47_181
*1895 FILLER_0_47_193
*1896 FILLER_0_47_205
*1897 FILLER_0_47_217
*1898 FILLER_0_47_223
*1899 FILLER_0_47_225
*1900 FILLER_0_47_237
*1901 FILLER_0_47_249
*1902 FILLER_0_47_261
*1903 FILLER_0_47_27
*1904 FILLER_0_47_273
*1905 FILLER_0_47_279
*1906 FILLER_0_47_281
*1907 FILLER_0_47_293
*1908 FILLER_0_47_3
*1909 FILLER_0_47_305
*1910 FILLER_0_47_317
*1911 FILLER_0_47_329
*1912 FILLER_0_47_335
*1913 FILLER_0_47_337
*1914 FILLER_0_47_349
*1915 FILLER_0_47_361
*1916 FILLER_0_47_373
*1917 FILLER_0_47_385
*1918 FILLER_0_47_39
*1919 FILLER_0_47_391
*1920 FILLER_0_47_393
*1921 FILLER_0_47_405
*1922 FILLER_0_47_417
*1923 FILLER_0_47_51
*1924 FILLER_0_47_55
*1925 FILLER_0_47_57
*1926 FILLER_0_47_69
*1927 FILLER_0_47_81
*1928 FILLER_0_47_93
*1929 FILLER_0_48_109
*1930 FILLER_0_48_121
*1931 FILLER_0_48_133
*1932 FILLER_0_48_139
*1933 FILLER_0_48_141
*1934 FILLER_0_48_15
*1935 FILLER_0_48_153
*1936 FILLER_0_48_165
*1937 FILLER_0_48_177
*1938 FILLER_0_48_189
*1939 FILLER_0_48_195
*1940 FILLER_0_48_197
*1941 FILLER_0_48_209
*1942 FILLER_0_48_221
*1943 FILLER_0_48_233
*1944 FILLER_0_48_245
*1945 FILLER_0_48_251
*1946 FILLER_0_48_253
*1947 FILLER_0_48_265
*1948 FILLER_0_48_27
*1949 FILLER_0_48_277
*1950 FILLER_0_48_289
*1951 FILLER_0_48_29
*1952 FILLER_0_48_3
*1953 FILLER_0_48_301
*1954 FILLER_0_48_307
*1955 FILLER_0_48_309
*1956 FILLER_0_48_321
*1957 FILLER_0_48_333
*1958 FILLER_0_48_345
*1959 FILLER_0_48_357
*1960 FILLER_0_48_363
*1961 FILLER_0_48_365
*1962 FILLER_0_48_377
*1963 FILLER_0_48_389
*1964 FILLER_0_48_401
*1965 FILLER_0_48_41
*1966 FILLER_0_48_413
*1967 FILLER_0_48_419
*1968 FILLER_0_48_421
*1969 FILLER_0_48_53
*1970 FILLER_0_48_65
*1971 FILLER_0_48_77
*1972 FILLER_0_48_83
*1973 FILLER_0_48_85
*1974 FILLER_0_48_97
*1975 FILLER_0_49_105
*1976 FILLER_0_49_111
*1977 FILLER_0_49_113
*1978 FILLER_0_49_125
*1979 FILLER_0_49_137
*1980 FILLER_0_49_149
*1981 FILLER_0_49_15
*1982 FILLER_0_49_161
*1983 FILLER_0_49_167
*1984 FILLER_0_49_169
*1985 FILLER_0_49_181
*1986 FILLER_0_49_193
*1987 FILLER_0_49_205
*1988 FILLER_0_49_217
*1989 FILLER_0_49_223
*1990 FILLER_0_49_225
*1991 FILLER_0_49_237
*1992 FILLER_0_49_249
*1993 FILLER_0_49_261
*1994 FILLER_0_49_27
*1995 FILLER_0_49_273
*1996 FILLER_0_49_279
*1997 FILLER_0_49_281
*1998 FILLER_0_49_293
*1999 FILLER_0_49_3
*2000 FILLER_0_49_305
*2001 FILLER_0_49_317
*2002 FILLER_0_49_329
*2003 FILLER_0_49_335
*2004 FILLER_0_49_337
*2005 FILLER_0_49_349
*2006 FILLER_0_49_361
*2007 FILLER_0_49_373
*2008 FILLER_0_49_385
*2009 FILLER_0_49_39
*2010 FILLER_0_49_391
*2011 FILLER_0_49_393
*2012 FILLER_0_49_405
*2013 FILLER_0_49_417
*2014 FILLER_0_49_51
*2015 FILLER_0_49_55
*2016 FILLER_0_49_57
*2017 FILLER_0_49_69
*2018 FILLER_0_49_81
*2019 FILLER_0_49_93
*2020 FILLER_0_4_109
*2021 FILLER_0_4_121
*2022 FILLER_0_4_133
*2023 FILLER_0_4_139
*2024 FILLER_0_4_141
*2025 FILLER_0_4_15
*2026 FILLER_0_4_153
*2027 FILLER_0_4_165
*2028 FILLER_0_4_177
*2029 FILLER_0_4_189
*2030 FILLER_0_4_195
*2031 FILLER_0_4_197
*2032 FILLER_0_4_209
*2033 FILLER_0_4_221
*2034 FILLER_0_4_233
*2035 FILLER_0_4_245
*2036 FILLER_0_4_251
*2037 FILLER_0_4_253
*2038 FILLER_0_4_265
*2039 FILLER_0_4_27
*2040 FILLER_0_4_277
*2041 FILLER_0_4_289
*2042 FILLER_0_4_29
*2043 FILLER_0_4_3
*2044 FILLER_0_4_301
*2045 FILLER_0_4_307
*2046 FILLER_0_4_309
*2047 FILLER_0_4_321
*2048 FILLER_0_4_333
*2049 FILLER_0_4_345
*2050 FILLER_0_4_357
*2051 FILLER_0_4_363
*2052 FILLER_0_4_365
*2053 FILLER_0_4_377
*2054 FILLER_0_4_389
*2055 FILLER_0_4_401
*2056 FILLER_0_4_41
*2057 FILLER_0_4_413
*2058 FILLER_0_4_419
*2059 FILLER_0_4_421
*2060 FILLER_0_4_53
*2061 FILLER_0_4_65
*2062 FILLER_0_4_77
*2063 FILLER_0_4_83
*2064 FILLER_0_4_85
*2065 FILLER_0_4_97
*2066 FILLER_0_50_109
*2067 FILLER_0_50_121
*2068 FILLER_0_50_133
*2069 FILLER_0_50_139
*2070 FILLER_0_50_141
*2071 FILLER_0_50_15
*2072 FILLER_0_50_153
*2073 FILLER_0_50_165
*2074 FILLER_0_50_177
*2075 FILLER_0_50_189
*2076 FILLER_0_50_195
*2077 FILLER_0_50_197
*2078 FILLER_0_50_209
*2079 FILLER_0_50_221
*2080 FILLER_0_50_233
*2081 FILLER_0_50_245
*2082 FILLER_0_50_251
*2083 FILLER_0_50_253
*2084 FILLER_0_50_265
*2085 FILLER_0_50_27
*2086 FILLER_0_50_277
*2087 FILLER_0_50_289
*2088 FILLER_0_50_29
*2089 FILLER_0_50_3
*2090 FILLER_0_50_301
*2091 FILLER_0_50_307
*2092 FILLER_0_50_309
*2093 FILLER_0_50_321
*2094 FILLER_0_50_333
*2095 FILLER_0_50_345
*2096 FILLER_0_50_357
*2097 FILLER_0_50_363
*2098 FILLER_0_50_365
*2099 FILLER_0_50_377
*2100 FILLER_0_50_389
*2101 FILLER_0_50_401
*2102 FILLER_0_50_41
*2103 FILLER_0_50_413
*2104 FILLER_0_50_419
*2105 FILLER_0_50_421
*2106 FILLER_0_50_53
*2107 FILLER_0_50_65
*2108 FILLER_0_50_77
*2109 FILLER_0_50_83
*2110 FILLER_0_50_85
*2111 FILLER_0_50_97
*2112 FILLER_0_51_105
*2113 FILLER_0_51_111
*2114 FILLER_0_51_113
*2115 FILLER_0_51_125
*2116 FILLER_0_51_137
*2117 FILLER_0_51_149
*2118 FILLER_0_51_15
*2119 FILLER_0_51_161
*2120 FILLER_0_51_167
*2121 FILLER_0_51_169
*2122 FILLER_0_51_181
*2123 FILLER_0_51_193
*2124 FILLER_0_51_205
*2125 FILLER_0_51_217
*2126 FILLER_0_51_223
*2127 FILLER_0_51_225
*2128 FILLER_0_51_237
*2129 FILLER_0_51_249
*2130 FILLER_0_51_261
*2131 FILLER_0_51_27
*2132 FILLER_0_51_273
*2133 FILLER_0_51_279
*2134 FILLER_0_51_281
*2135 FILLER_0_51_293
*2136 FILLER_0_51_3
*2137 FILLER_0_51_305
*2138 FILLER_0_51_317
*2139 FILLER_0_51_329
*2140 FILLER_0_51_335
*2141 FILLER_0_51_337
*2142 FILLER_0_51_349
*2143 FILLER_0_51_361
*2144 FILLER_0_51_373
*2145 FILLER_0_51_385
*2146 FILLER_0_51_39
*2147 FILLER_0_51_391
*2148 FILLER_0_51_393
*2149 FILLER_0_51_405
*2150 FILLER_0_51_417
*2151 FILLER_0_51_51
*2152 FILLER_0_51_55
*2153 FILLER_0_51_57
*2154 FILLER_0_51_69
*2155 FILLER_0_51_81
*2156 FILLER_0_51_93
*2157 FILLER_0_52_109
*2158 FILLER_0_52_121
*2159 FILLER_0_52_133
*2160 FILLER_0_52_139
*2161 FILLER_0_52_141
*2162 FILLER_0_52_15
*2163 FILLER_0_52_153
*2164 FILLER_0_52_165
*2165 FILLER_0_52_177
*2166 FILLER_0_52_189
*2167 FILLER_0_52_195
*2168 FILLER_0_52_197
*2169 FILLER_0_52_209
*2170 FILLER_0_52_221
*2171 FILLER_0_52_233
*2172 FILLER_0_52_245
*2173 FILLER_0_52_251
*2174 FILLER_0_52_253
*2175 FILLER_0_52_265
*2176 FILLER_0_52_27
*2177 FILLER_0_52_277
*2178 FILLER_0_52_289
*2179 FILLER_0_52_29
*2180 FILLER_0_52_3
*2181 FILLER_0_52_301
*2182 FILLER_0_52_307
*2183 FILLER_0_52_309
*2184 FILLER_0_52_321
*2185 FILLER_0_52_333
*2186 FILLER_0_52_345
*2187 FILLER_0_52_357
*2188 FILLER_0_52_363
*2189 FILLER_0_52_365
*2190 FILLER_0_52_377
*2191 FILLER_0_52_389
*2192 FILLER_0_52_401
*2193 FILLER_0_52_41
*2194 FILLER_0_52_413
*2195 FILLER_0_52_419
*2196 FILLER_0_52_421
*2197 FILLER_0_52_53
*2198 FILLER_0_52_65
*2199 FILLER_0_52_77
*2200 FILLER_0_52_83
*2201 FILLER_0_52_85
*2202 FILLER_0_52_97
*2203 FILLER_0_53_105
*2204 FILLER_0_53_111
*2205 FILLER_0_53_113
*2206 FILLER_0_53_125
*2207 FILLER_0_53_137
*2208 FILLER_0_53_149
*2209 FILLER_0_53_15
*2210 FILLER_0_53_161
*2211 FILLER_0_53_167
*2212 FILLER_0_53_169
*2213 FILLER_0_53_181
*2214 FILLER_0_53_193
*2215 FILLER_0_53_205
*2216 FILLER_0_53_217
*2217 FILLER_0_53_223
*2218 FILLER_0_53_225
*2219 FILLER_0_53_237
*2220 FILLER_0_53_249
*2221 FILLER_0_53_261
*2222 FILLER_0_53_27
*2223 FILLER_0_53_273
*2224 FILLER_0_53_279
*2225 FILLER_0_53_281
*2226 FILLER_0_53_293
*2227 FILLER_0_53_3
*2228 FILLER_0_53_305
*2229 FILLER_0_53_317
*2230 FILLER_0_53_329
*2231 FILLER_0_53_335
*2232 FILLER_0_53_337
*2233 FILLER_0_53_349
*2234 FILLER_0_53_361
*2235 FILLER_0_53_373
*2236 FILLER_0_53_385
*2237 FILLER_0_53_39
*2238 FILLER_0_53_391
*2239 FILLER_0_53_393
*2240 FILLER_0_53_405
*2241 FILLER_0_53_417
*2242 FILLER_0_53_51
*2243 FILLER_0_53_55
*2244 FILLER_0_53_57
*2245 FILLER_0_53_69
*2246 FILLER_0_53_81
*2247 FILLER_0_53_93
*2248 FILLER_0_54_109
*2249 FILLER_0_54_121
*2250 FILLER_0_54_133
*2251 FILLER_0_54_139
*2252 FILLER_0_54_141
*2253 FILLER_0_54_15
*2254 FILLER_0_54_153
*2255 FILLER_0_54_165
*2256 FILLER_0_54_177
*2257 FILLER_0_54_189
*2258 FILLER_0_54_195
*2259 FILLER_0_54_197
*2260 FILLER_0_54_209
*2261 FILLER_0_54_221
*2262 FILLER_0_54_233
*2263 FILLER_0_54_245
*2264 FILLER_0_54_251
*2265 FILLER_0_54_253
*2266 FILLER_0_54_265
*2267 FILLER_0_54_27
*2268 FILLER_0_54_277
*2269 FILLER_0_54_289
*2270 FILLER_0_54_29
*2271 FILLER_0_54_3
*2272 FILLER_0_54_301
*2273 FILLER_0_54_307
*2274 FILLER_0_54_309
*2275 FILLER_0_54_321
*2276 FILLER_0_54_333
*2277 FILLER_0_54_345
*2278 FILLER_0_54_357
*2279 FILLER_0_54_363
*2280 FILLER_0_54_365
*2281 FILLER_0_54_377
*2282 FILLER_0_54_389
*2283 FILLER_0_54_401
*2284 FILLER_0_54_41
*2285 FILLER_0_54_413
*2286 FILLER_0_54_419
*2287 FILLER_0_54_421
*2288 FILLER_0_54_53
*2289 FILLER_0_54_65
*2290 FILLER_0_54_77
*2291 FILLER_0_54_83
*2292 FILLER_0_54_85
*2293 FILLER_0_54_97
*2294 FILLER_0_55_105
*2295 FILLER_0_55_111
*2296 FILLER_0_55_113
*2297 FILLER_0_55_125
*2298 FILLER_0_55_137
*2299 FILLER_0_55_149
*2300 FILLER_0_55_15
*2301 FILLER_0_55_161
*2302 FILLER_0_55_167
*2303 FILLER_0_55_169
*2304 FILLER_0_55_181
*2305 FILLER_0_55_193
*2306 FILLER_0_55_205
*2307 FILLER_0_55_217
*2308 FILLER_0_55_223
*2309 FILLER_0_55_225
*2310 FILLER_0_55_237
*2311 FILLER_0_55_249
*2312 FILLER_0_55_261
*2313 FILLER_0_55_27
*2314 FILLER_0_55_273
*2315 FILLER_0_55_279
*2316 FILLER_0_55_281
*2317 FILLER_0_55_293
*2318 FILLER_0_55_3
*2319 FILLER_0_55_305
*2320 FILLER_0_55_317
*2321 FILLER_0_55_329
*2322 FILLER_0_55_335
*2323 FILLER_0_55_337
*2324 FILLER_0_55_349
*2325 FILLER_0_55_361
*2326 FILLER_0_55_373
*2327 FILLER_0_55_385
*2328 FILLER_0_55_39
*2329 FILLER_0_55_391
*2330 FILLER_0_55_393
*2331 FILLER_0_55_405
*2332 FILLER_0_55_417
*2333 FILLER_0_55_51
*2334 FILLER_0_55_55
*2335 FILLER_0_55_57
*2336 FILLER_0_55_69
*2337 FILLER_0_55_81
*2338 FILLER_0_55_93
*2339 FILLER_0_56_109
*2340 FILLER_0_56_121
*2341 FILLER_0_56_133
*2342 FILLER_0_56_139
*2343 FILLER_0_56_141
*2344 FILLER_0_56_15
*2345 FILLER_0_56_153
*2346 FILLER_0_56_165
*2347 FILLER_0_56_177
*2348 FILLER_0_56_189
*2349 FILLER_0_56_195
*2350 FILLER_0_56_197
*2351 FILLER_0_56_209
*2352 FILLER_0_56_221
*2353 FILLER_0_56_233
*2354 FILLER_0_56_245
*2355 FILLER_0_56_251
*2356 FILLER_0_56_253
*2357 FILLER_0_56_265
*2358 FILLER_0_56_27
*2359 FILLER_0_56_277
*2360 FILLER_0_56_289
*2361 FILLER_0_56_29
*2362 FILLER_0_56_3
*2363 FILLER_0_56_301
*2364 FILLER_0_56_307
*2365 FILLER_0_56_309
*2366 FILLER_0_56_321
*2367 FILLER_0_56_333
*2368 FILLER_0_56_345
*2369 FILLER_0_56_357
*2370 FILLER_0_56_363
*2371 FILLER_0_56_365
*2372 FILLER_0_56_377
*2373 FILLER_0_56_389
*2374 FILLER_0_56_401
*2375 FILLER_0_56_41
*2376 FILLER_0_56_413
*2377 FILLER_0_56_419
*2378 FILLER_0_56_421
*2379 FILLER_0_56_53
*2380 FILLER_0_56_65
*2381 FILLER_0_56_77
*2382 FILLER_0_56_83
*2383 FILLER_0_56_85
*2384 FILLER_0_56_97
*2385 FILLER_0_57_105
*2386 FILLER_0_57_111
*2387 FILLER_0_57_113
*2388 FILLER_0_57_125
*2389 FILLER_0_57_137
*2390 FILLER_0_57_149
*2391 FILLER_0_57_15
*2392 FILLER_0_57_161
*2393 FILLER_0_57_167
*2394 FILLER_0_57_169
*2395 FILLER_0_57_181
*2396 FILLER_0_57_193
*2397 FILLER_0_57_205
*2398 FILLER_0_57_217
*2399 FILLER_0_57_223
*2400 FILLER_0_57_225
*2401 FILLER_0_57_237
*2402 FILLER_0_57_249
*2403 FILLER_0_57_261
*2404 FILLER_0_57_27
*2405 FILLER_0_57_273
*2406 FILLER_0_57_279
*2407 FILLER_0_57_281
*2408 FILLER_0_57_293
*2409 FILLER_0_57_3
*2410 FILLER_0_57_305
*2411 FILLER_0_57_317
*2412 FILLER_0_57_329
*2413 FILLER_0_57_335
*2414 FILLER_0_57_337
*2415 FILLER_0_57_349
*2416 FILLER_0_57_361
*2417 FILLER_0_57_373
*2418 FILLER_0_57_385
*2419 FILLER_0_57_39
*2420 FILLER_0_57_391
*2421 FILLER_0_57_393
*2422 FILLER_0_57_405
*2423 FILLER_0_57_417
*2424 FILLER_0_57_51
*2425 FILLER_0_57_55
*2426 FILLER_0_57_57
*2427 FILLER_0_57_69
*2428 FILLER_0_57_81
*2429 FILLER_0_57_93
*2430 FILLER_0_58_109
*2431 FILLER_0_58_121
*2432 FILLER_0_58_133
*2433 FILLER_0_58_139
*2434 FILLER_0_58_141
*2435 FILLER_0_58_15
*2436 FILLER_0_58_153
*2437 FILLER_0_58_165
*2438 FILLER_0_58_177
*2439 FILLER_0_58_189
*2440 FILLER_0_58_195
*2441 FILLER_0_58_197
*2442 FILLER_0_58_209
*2443 FILLER_0_58_221
*2444 FILLER_0_58_233
*2445 FILLER_0_58_245
*2446 FILLER_0_58_251
*2447 FILLER_0_58_253
*2448 FILLER_0_58_265
*2449 FILLER_0_58_27
*2450 FILLER_0_58_277
*2451 FILLER_0_58_289
*2452 FILLER_0_58_29
*2453 FILLER_0_58_3
*2454 FILLER_0_58_301
*2455 FILLER_0_58_307
*2456 FILLER_0_58_309
*2457 FILLER_0_58_321
*2458 FILLER_0_58_333
*2459 FILLER_0_58_345
*2460 FILLER_0_58_357
*2461 FILLER_0_58_363
*2462 FILLER_0_58_365
*2463 FILLER_0_58_377
*2464 FILLER_0_58_389
*2465 FILLER_0_58_401
*2466 FILLER_0_58_41
*2467 FILLER_0_58_413
*2468 FILLER_0_58_419
*2469 FILLER_0_58_421
*2470 FILLER_0_58_53
*2471 FILLER_0_58_65
*2472 FILLER_0_58_77
*2473 FILLER_0_58_83
*2474 FILLER_0_58_85
*2475 FILLER_0_58_97
*2476 FILLER_0_59_105
*2477 FILLER_0_59_111
*2478 FILLER_0_59_113
*2479 FILLER_0_59_125
*2480 FILLER_0_59_137
*2481 FILLER_0_59_149
*2482 FILLER_0_59_15
*2483 FILLER_0_59_161
*2484 FILLER_0_59_167
*2485 FILLER_0_59_169
*2486 FILLER_0_59_181
*2487 FILLER_0_59_193
*2488 FILLER_0_59_205
*2489 FILLER_0_59_217
*2490 FILLER_0_59_223
*2491 FILLER_0_59_225
*2492 FILLER_0_59_237
*2493 FILLER_0_59_249
*2494 FILLER_0_59_261
*2495 FILLER_0_59_27
*2496 FILLER_0_59_273
*2497 FILLER_0_59_279
*2498 FILLER_0_59_281
*2499 FILLER_0_59_293
*2500 FILLER_0_59_3
*2501 FILLER_0_59_305
*2502 FILLER_0_59_317
*2503 FILLER_0_59_329
*2504 FILLER_0_59_335
*2505 FILLER_0_59_337
*2506 FILLER_0_59_349
*2507 FILLER_0_59_361
*2508 FILLER_0_59_373
*2509 FILLER_0_59_385
*2510 FILLER_0_59_39
*2511 FILLER_0_59_391
*2512 FILLER_0_59_393
*2513 FILLER_0_59_405
*2514 FILLER_0_59_417
*2515 FILLER_0_59_51
*2516 FILLER_0_59_55
*2517 FILLER_0_59_57
*2518 FILLER_0_59_69
*2519 FILLER_0_59_81
*2520 FILLER_0_59_93
*2521 FILLER_0_5_105
*2522 FILLER_0_5_111
*2523 FILLER_0_5_113
*2524 FILLER_0_5_125
*2525 FILLER_0_5_137
*2526 FILLER_0_5_149
*2527 FILLER_0_5_15
*2528 FILLER_0_5_161
*2529 FILLER_0_5_167
*2530 FILLER_0_5_169
*2531 FILLER_0_5_181
*2532 FILLER_0_5_193
*2533 FILLER_0_5_205
*2534 FILLER_0_5_217
*2535 FILLER_0_5_223
*2536 FILLER_0_5_225
*2537 FILLER_0_5_237
*2538 FILLER_0_5_249
*2539 FILLER_0_5_261
*2540 FILLER_0_5_27
*2541 FILLER_0_5_273
*2542 FILLER_0_5_279
*2543 FILLER_0_5_281
*2544 FILLER_0_5_293
*2545 FILLER_0_5_3
*2546 FILLER_0_5_305
*2547 FILLER_0_5_317
*2548 FILLER_0_5_329
*2549 FILLER_0_5_335
*2550 FILLER_0_5_337
*2551 FILLER_0_5_349
*2552 FILLER_0_5_361
*2553 FILLER_0_5_373
*2554 FILLER_0_5_385
*2555 FILLER_0_5_39
*2556 FILLER_0_5_391
*2557 FILLER_0_5_393
*2558 FILLER_0_5_405
*2559 FILLER_0_5_417
*2560 FILLER_0_5_51
*2561 FILLER_0_5_55
*2562 FILLER_0_5_57
*2563 FILLER_0_5_69
*2564 FILLER_0_5_81
*2565 FILLER_0_5_93
*2566 FILLER_0_60_109
*2567 FILLER_0_60_121
*2568 FILLER_0_60_133
*2569 FILLER_0_60_139
*2570 FILLER_0_60_141
*2571 FILLER_0_60_15
*2572 FILLER_0_60_153
*2573 FILLER_0_60_165
*2574 FILLER_0_60_177
*2575 FILLER_0_60_189
*2576 FILLER_0_60_195
*2577 FILLER_0_60_197
*2578 FILLER_0_60_209
*2579 FILLER_0_60_221
*2580 FILLER_0_60_233
*2581 FILLER_0_60_245
*2582 FILLER_0_60_251
*2583 FILLER_0_60_253
*2584 FILLER_0_60_265
*2585 FILLER_0_60_27
*2586 FILLER_0_60_277
*2587 FILLER_0_60_289
*2588 FILLER_0_60_29
*2589 FILLER_0_60_3
*2590 FILLER_0_60_301
*2591 FILLER_0_60_307
*2592 FILLER_0_60_309
*2593 FILLER_0_60_321
*2594 FILLER_0_60_333
*2595 FILLER_0_60_345
*2596 FILLER_0_60_357
*2597 FILLER_0_60_363
*2598 FILLER_0_60_365
*2599 FILLER_0_60_377
*2600 FILLER_0_60_389
*2601 FILLER_0_60_401
*2602 FILLER_0_60_41
*2603 FILLER_0_60_413
*2604 FILLER_0_60_419
*2605 FILLER_0_60_421
*2606 FILLER_0_60_53
*2607 FILLER_0_60_65
*2608 FILLER_0_60_77
*2609 FILLER_0_60_83
*2610 FILLER_0_60_85
*2611 FILLER_0_60_97
*2612 FILLER_0_61_105
*2613 FILLER_0_61_111
*2614 FILLER_0_61_113
*2615 FILLER_0_61_125
*2616 FILLER_0_61_137
*2617 FILLER_0_61_149
*2618 FILLER_0_61_15
*2619 FILLER_0_61_161
*2620 FILLER_0_61_167
*2621 FILLER_0_61_169
*2622 FILLER_0_61_181
*2623 FILLER_0_61_193
*2624 FILLER_0_61_205
*2625 FILLER_0_61_217
*2626 FILLER_0_61_223
*2627 FILLER_0_61_225
*2628 FILLER_0_61_237
*2629 FILLER_0_61_249
*2630 FILLER_0_61_261
*2631 FILLER_0_61_27
*2632 FILLER_0_61_273
*2633 FILLER_0_61_279
*2634 FILLER_0_61_281
*2635 FILLER_0_61_293
*2636 FILLER_0_61_3
*2637 FILLER_0_61_305
*2638 FILLER_0_61_317
*2639 FILLER_0_61_329
*2640 FILLER_0_61_335
*2641 FILLER_0_61_337
*2642 FILLER_0_61_349
*2643 FILLER_0_61_361
*2644 FILLER_0_61_373
*2645 FILLER_0_61_385
*2646 FILLER_0_61_39
*2647 FILLER_0_61_391
*2648 FILLER_0_61_393
*2649 FILLER_0_61_405
*2650 FILLER_0_61_417
*2651 FILLER_0_61_51
*2652 FILLER_0_61_55
*2653 FILLER_0_61_57
*2654 FILLER_0_61_69
*2655 FILLER_0_61_81
*2656 FILLER_0_61_93
*2657 FILLER_0_62_109
*2658 FILLER_0_62_121
*2659 FILLER_0_62_133
*2660 FILLER_0_62_139
*2661 FILLER_0_62_141
*2662 FILLER_0_62_15
*2663 FILLER_0_62_153
*2664 FILLER_0_62_165
*2665 FILLER_0_62_177
*2666 FILLER_0_62_189
*2667 FILLER_0_62_195
*2668 FILLER_0_62_197
*2669 FILLER_0_62_209
*2670 FILLER_0_62_221
*2671 FILLER_0_62_233
*2672 FILLER_0_62_245
*2673 FILLER_0_62_251
*2674 FILLER_0_62_253
*2675 FILLER_0_62_265
*2676 FILLER_0_62_27
*2677 FILLER_0_62_277
*2678 FILLER_0_62_289
*2679 FILLER_0_62_29
*2680 FILLER_0_62_3
*2681 FILLER_0_62_301
*2682 FILLER_0_62_307
*2683 FILLER_0_62_309
*2684 FILLER_0_62_321
*2685 FILLER_0_62_333
*2686 FILLER_0_62_345
*2687 FILLER_0_62_357
*2688 FILLER_0_62_363
*2689 FILLER_0_62_365
*2690 FILLER_0_62_377
*2691 FILLER_0_62_389
*2692 FILLER_0_62_401
*2693 FILLER_0_62_41
*2694 FILLER_0_62_413
*2695 FILLER_0_62_419
*2696 FILLER_0_62_421
*2697 FILLER_0_62_53
*2698 FILLER_0_62_65
*2699 FILLER_0_62_77
*2700 FILLER_0_62_83
*2701 FILLER_0_62_85
*2702 FILLER_0_62_97
*2703 FILLER_0_63_105
*2704 FILLER_0_63_111
*2705 FILLER_0_63_113
*2706 FILLER_0_63_125
*2707 FILLER_0_63_137
*2708 FILLER_0_63_149
*2709 FILLER_0_63_15
*2710 FILLER_0_63_161
*2711 FILLER_0_63_167
*2712 FILLER_0_63_169
*2713 FILLER_0_63_181
*2714 FILLER_0_63_193
*2715 FILLER_0_63_205
*2716 FILLER_0_63_217
*2717 FILLER_0_63_223
*2718 FILLER_0_63_225
*2719 FILLER_0_63_237
*2720 FILLER_0_63_249
*2721 FILLER_0_63_261
*2722 FILLER_0_63_27
*2723 FILLER_0_63_273
*2724 FILLER_0_63_279
*2725 FILLER_0_63_281
*2726 FILLER_0_63_293
*2727 FILLER_0_63_3
*2728 FILLER_0_63_305
*2729 FILLER_0_63_317
*2730 FILLER_0_63_329
*2731 FILLER_0_63_335
*2732 FILLER_0_63_337
*2733 FILLER_0_63_349
*2734 FILLER_0_63_361
*2735 FILLER_0_63_373
*2736 FILLER_0_63_385
*2737 FILLER_0_63_39
*2738 FILLER_0_63_391
*2739 FILLER_0_63_393
*2740 FILLER_0_63_405
*2741 FILLER_0_63_417
*2742 FILLER_0_63_51
*2743 FILLER_0_63_55
*2744 FILLER_0_63_57
*2745 FILLER_0_63_69
*2746 FILLER_0_63_81
*2747 FILLER_0_63_93
*2748 FILLER_0_64_109
*2749 FILLER_0_64_113
*2750 FILLER_0_64_125
*2751 FILLER_0_64_137
*2752 FILLER_0_64_141
*2753 FILLER_0_64_15
*2754 FILLER_0_64_153
*2755 FILLER_0_64_165
*2756 FILLER_0_64_169
*2757 FILLER_0_64_181
*2758 FILLER_0_64_193
*2759 FILLER_0_64_197
*2760 FILLER_0_64_209
*2761 FILLER_0_64_221
*2762 FILLER_0_64_225
*2763 FILLER_0_64_237
*2764 FILLER_0_64_249
*2765 FILLER_0_64_253
*2766 FILLER_0_64_265
*2767 FILLER_0_64_27
*2768 FILLER_0_64_277
*2769 FILLER_0_64_281
*2770 FILLER_0_64_29
*2771 FILLER_0_64_293
*2772 FILLER_0_64_3
*2773 FILLER_0_64_305
*2774 FILLER_0_64_309
*2775 FILLER_0_64_321
*2776 FILLER_0_64_333
*2777 FILLER_0_64_337
*2778 FILLER_0_64_349
*2779 FILLER_0_64_361
*2780 FILLER_0_64_365
*2781 FILLER_0_64_377
*2782 FILLER_0_64_389
*2783 FILLER_0_64_393
*2784 FILLER_0_64_405
*2785 FILLER_0_64_41
*2786 FILLER_0_64_417
*2787 FILLER_0_64_421
*2788 FILLER_0_64_53
*2789 FILLER_0_64_57
*2790 FILLER_0_64_69
*2791 FILLER_0_64_81
*2792 FILLER_0_64_85
*2793 FILLER_0_64_97
*2794 FILLER_0_6_109
*2795 FILLER_0_6_121
*2796 FILLER_0_6_133
*2797 FILLER_0_6_139
*2798 FILLER_0_6_141
*2799 FILLER_0_6_15
*2800 FILLER_0_6_153
*2801 FILLER_0_6_165
*2802 FILLER_0_6_177
*2803 FILLER_0_6_189
*2804 FILLER_0_6_195
*2805 FILLER_0_6_197
*2806 FILLER_0_6_209
*2807 FILLER_0_6_221
*2808 FILLER_0_6_233
*2809 FILLER_0_6_245
*2810 FILLER_0_6_251
*2811 FILLER_0_6_253
*2812 FILLER_0_6_265
*2813 FILLER_0_6_27
*2814 FILLER_0_6_277
*2815 FILLER_0_6_289
*2816 FILLER_0_6_29
*2817 FILLER_0_6_3
*2818 FILLER_0_6_301
*2819 FILLER_0_6_307
*2820 FILLER_0_6_309
*2821 FILLER_0_6_321
*2822 FILLER_0_6_333
*2823 FILLER_0_6_345
*2824 FILLER_0_6_357
*2825 FILLER_0_6_363
*2826 FILLER_0_6_365
*2827 FILLER_0_6_377
*2828 FILLER_0_6_389
*2829 FILLER_0_6_401
*2830 FILLER_0_6_41
*2831 FILLER_0_6_413
*2832 FILLER_0_6_419
*2833 FILLER_0_6_421
*2834 FILLER_0_6_53
*2835 FILLER_0_6_65
*2836 FILLER_0_6_77
*2837 FILLER_0_6_83
*2838 FILLER_0_6_85
*2839 FILLER_0_6_97
*2840 FILLER_0_7_105
*2841 FILLER_0_7_111
*2842 FILLER_0_7_113
*2843 FILLER_0_7_125
*2844 FILLER_0_7_137
*2845 FILLER_0_7_149
*2846 FILLER_0_7_15
*2847 FILLER_0_7_161
*2848 FILLER_0_7_167
*2849 FILLER_0_7_169
*2850 FILLER_0_7_181
*2851 FILLER_0_7_193
*2852 FILLER_0_7_205
*2853 FILLER_0_7_217
*2854 FILLER_0_7_223
*2855 FILLER_0_7_225
*2856 FILLER_0_7_237
*2857 FILLER_0_7_249
*2858 FILLER_0_7_261
*2859 FILLER_0_7_27
*2860 FILLER_0_7_273
*2861 FILLER_0_7_279
*2862 FILLER_0_7_281
*2863 FILLER_0_7_293
*2864 FILLER_0_7_3
*2865 FILLER_0_7_305
*2866 FILLER_0_7_317
*2867 FILLER_0_7_329
*2868 FILLER_0_7_335
*2869 FILLER_0_7_337
*2870 FILLER_0_7_349
*2871 FILLER_0_7_361
*2872 FILLER_0_7_373
*2873 FILLER_0_7_385
*2874 FILLER_0_7_39
*2875 FILLER_0_7_391
*2876 FILLER_0_7_393
*2877 FILLER_0_7_405
*2878 FILLER_0_7_417
*2879 FILLER_0_7_51
*2880 FILLER_0_7_55
*2881 FILLER_0_7_57
*2882 FILLER_0_7_69
*2883 FILLER_0_7_81
*2884 FILLER_0_7_93
*2885 FILLER_0_8_109
*2886 FILLER_0_8_121
*2887 FILLER_0_8_133
*2888 FILLER_0_8_139
*2889 FILLER_0_8_141
*2890 FILLER_0_8_15
*2891 FILLER_0_8_153
*2892 FILLER_0_8_165
*2893 FILLER_0_8_177
*2894 FILLER_0_8_189
*2895 FILLER_0_8_195
*2896 FILLER_0_8_197
*2897 FILLER_0_8_209
*2898 FILLER_0_8_221
*2899 FILLER_0_8_233
*2900 FILLER_0_8_245
*2901 FILLER_0_8_251
*2902 FILLER_0_8_253
*2903 FILLER_0_8_265
*2904 FILLER_0_8_27
*2905 FILLER_0_8_277
*2906 FILLER_0_8_289
*2907 FILLER_0_8_29
*2908 FILLER_0_8_3
*2909 FILLER_0_8_301
*2910 FILLER_0_8_307
*2911 FILLER_0_8_309
*2912 FILLER_0_8_321
*2913 FILLER_0_8_333
*2914 FILLER_0_8_345
*2915 FILLER_0_8_357
*2916 FILLER_0_8_363
*2917 FILLER_0_8_365
*2918 FILLER_0_8_377
*2919 FILLER_0_8_389
*2920 FILLER_0_8_401
*2921 FILLER_0_8_41
*2922 FILLER_0_8_413
*2923 FILLER_0_8_419
*2924 FILLER_0_8_421
*2925 FILLER_0_8_53
*2926 FILLER_0_8_65
*2927 FILLER_0_8_77
*2928 FILLER_0_8_83
*2929 FILLER_0_8_85
*2930 FILLER_0_8_97
*2931 FILLER_0_9_105
*2932 FILLER_0_9_111
*2933 FILLER_0_9_113
*2934 FILLER_0_9_125
*2935 FILLER_0_9_137
*2936 FILLER_0_9_149
*2937 FILLER_0_9_15
*2938 FILLER_0_9_161
*2939 FILLER_0_9_167
*2940 FILLER_0_9_169
*2941 FILLER_0_9_181
*2942 FILLER_0_9_193
*2943 FILLER_0_9_205
*2944 FILLER_0_9_217
*2945 FILLER_0_9_223
*2946 FILLER_0_9_225
*2947 FILLER_0_9_237
*2948 FILLER_0_9_249
*2949 FILLER_0_9_261
*2950 FILLER_0_9_27
*2951 FILLER_0_9_273
*2952 FILLER_0_9_279
*2953 FILLER_0_9_281
*2954 FILLER_0_9_293
*2955 FILLER_0_9_3
*2956 FILLER_0_9_305
*2957 FILLER_0_9_317
*2958 FILLER_0_9_329
*2959 FILLER_0_9_335
*2960 FILLER_0_9_337
*2961 FILLER_0_9_349
*2962 FILLER_0_9_361
*2963 FILLER_0_9_373
*2964 FILLER_0_9_385
*2965 FILLER_0_9_39
*2966 FILLER_0_9_391
*2967 FILLER_0_9_393
*2968 FILLER_0_9_405
*2969 FILLER_0_9_417
*2970 FILLER_0_9_51
*2971 FILLER_0_9_55
*2972 FILLER_0_9_57
*2973 FILLER_0_9_69
*2974 FILLER_0_9_81
*2975 FILLER_0_9_93
*2976 PHY_EDGE_ROW_0_Left_65
*2977 PHY_EDGE_ROW_0_Right_0
*2978 PHY_EDGE_ROW_10_Left_75
*2979 PHY_EDGE_ROW_10_Right_10
*2980 PHY_EDGE_ROW_11_Left_76
*2981 PHY_EDGE_ROW_11_Right_11
*2982 PHY_EDGE_ROW_12_Left_77
*2983 PHY_EDGE_ROW_12_Right_12
*2984 PHY_EDGE_ROW_13_Left_78
*2985 PHY_EDGE_ROW_13_Right_13
*2986 PHY_EDGE_ROW_14_Left_79
*2987 PHY_EDGE_ROW_14_Right_14
*2988 PHY_EDGE_ROW_15_Left_80
*2989 PHY_EDGE_ROW_15_Right_15
*2990 PHY_EDGE_ROW_16_Left_81
*2991 PHY_EDGE_ROW_16_Right_16
*2992 PHY_EDGE_ROW_17_Left_82
*2993 PHY_EDGE_ROW_17_Right_17
*2994 PHY_EDGE_ROW_18_Left_83
*2995 PHY_EDGE_ROW_18_Right_18
*2996 PHY_EDGE_ROW_19_Left_84
*2997 PHY_EDGE_ROW_19_Right_19
*2998 PHY_EDGE_ROW_1_Left_66
*2999 PHY_EDGE_ROW_1_Right_1
*3000 PHY_EDGE_ROW_20_Left_85
*3001 PHY_EDGE_ROW_20_Right_20
*3002 PHY_EDGE_ROW_21_Left_86
*3003 PHY_EDGE_ROW_21_Right_21
*3004 PHY_EDGE_ROW_22_Left_87
*3005 PHY_EDGE_ROW_22_Right_22
*3006 PHY_EDGE_ROW_23_Left_88
*3007 PHY_EDGE_ROW_23_Right_23
*3008 PHY_EDGE_ROW_24_Left_89
*3009 PHY_EDGE_ROW_24_Right_24
*3010 PHY_EDGE_ROW_25_Left_90
*3011 PHY_EDGE_ROW_25_Right_25
*3012 PHY_EDGE_ROW_26_Left_91
*3013 PHY_EDGE_ROW_26_Right_26
*3014 PHY_EDGE_ROW_27_Left_92
*3015 PHY_EDGE_ROW_27_Right_27
*3016 PHY_EDGE_ROW_28_Left_93
*3017 PHY_EDGE_ROW_28_Right_28
*3018 PHY_EDGE_ROW_29_Left_94
*3019 PHY_EDGE_ROW_29_Right_29
*3020 PHY_EDGE_ROW_2_Left_67
*3021 PHY_EDGE_ROW_2_Right_2
*3022 PHY_EDGE_ROW_30_Left_95
*3023 PHY_EDGE_ROW_30_Right_30
*3024 PHY_EDGE_ROW_31_Left_96
*3025 PHY_EDGE_ROW_31_Right_31
*3026 PHY_EDGE_ROW_32_Left_97
*3027 PHY_EDGE_ROW_32_Right_32
*3028 PHY_EDGE_ROW_33_Left_98
*3029 PHY_EDGE_ROW_33_Right_33
*3030 PHY_EDGE_ROW_34_Left_99
*3031 PHY_EDGE_ROW_34_Right_34
*3032 PHY_EDGE_ROW_35_Left_100
*3033 PHY_EDGE_ROW_35_Right_35
*3034 PHY_EDGE_ROW_36_Left_101
*3035 PHY_EDGE_ROW_36_Right_36
*3036 PHY_EDGE_ROW_37_Left_102
*3037 PHY_EDGE_ROW_37_Right_37
*3038 PHY_EDGE_ROW_38_Left_103
*3039 PHY_EDGE_ROW_38_Right_38
*3040 PHY_EDGE_ROW_39_Left_104
*3041 PHY_EDGE_ROW_39_Right_39
*3042 PHY_EDGE_ROW_3_Left_68
*3043 PHY_EDGE_ROW_3_Right_3
*3044 PHY_EDGE_ROW_40_Left_105
*3045 PHY_EDGE_ROW_40_Right_40
*3046 PHY_EDGE_ROW_41_Left_106
*3047 PHY_EDGE_ROW_41_Right_41
*3048 PHY_EDGE_ROW_42_Left_107
*3049 PHY_EDGE_ROW_42_Right_42
*3050 PHY_EDGE_ROW_43_Left_108
*3051 PHY_EDGE_ROW_43_Right_43
*3052 PHY_EDGE_ROW_44_Left_109
*3053 PHY_EDGE_ROW_44_Right_44
*3054 PHY_EDGE_ROW_45_Left_110
*3055 PHY_EDGE_ROW_45_Right_45
*3056 PHY_EDGE_ROW_46_Left_111
*3057 PHY_EDGE_ROW_46_Right_46
*3058 PHY_EDGE_ROW_47_Left_112
*3059 PHY_EDGE_ROW_47_Right_47
*3060 PHY_EDGE_ROW_48_Left_113
*3061 PHY_EDGE_ROW_48_Right_48
*3062 PHY_EDGE_ROW_49_Left_114
*3063 PHY_EDGE_ROW_49_Right_49
*3064 PHY_EDGE_ROW_4_Left_69
*3065 PHY_EDGE_ROW_4_Right_4
*3066 PHY_EDGE_ROW_50_Left_115
*3067 PHY_EDGE_ROW_50_Right_50
*3068 PHY_EDGE_ROW_51_Left_116
*3069 PHY_EDGE_ROW_51_Right_51
*3070 PHY_EDGE_ROW_52_Left_117
*3071 PHY_EDGE_ROW_52_Right_52
*3072 PHY_EDGE_ROW_53_Left_118
*3073 PHY_EDGE_ROW_53_Right_53
*3074 PHY_EDGE_ROW_54_Left_119
*3075 PHY_EDGE_ROW_54_Right_54
*3076 PHY_EDGE_ROW_55_Left_120
*3077 PHY_EDGE_ROW_55_Right_55
*3078 PHY_EDGE_ROW_56_Left_121
*3079 PHY_EDGE_ROW_56_Right_56
*3080 PHY_EDGE_ROW_57_Left_122
*3081 PHY_EDGE_ROW_57_Right_57
*3082 PHY_EDGE_ROW_58_Left_123
*3083 PHY_EDGE_ROW_58_Right_58
*3084 PHY_EDGE_ROW_59_Left_124
*3085 PHY_EDGE_ROW_59_Right_59
*3086 PHY_EDGE_ROW_5_Left_70
*3087 PHY_EDGE_ROW_5_Right_5
*3088 PHY_EDGE_ROW_60_Left_125
*3089 PHY_EDGE_ROW_60_Right_60
*3090 PHY_EDGE_ROW_61_Left_126
*3091 PHY_EDGE_ROW_61_Right_61
*3092 PHY_EDGE_ROW_62_Left_127
*3093 PHY_EDGE_ROW_62_Right_62
*3094 PHY_EDGE_ROW_63_Left_128
*3095 PHY_EDGE_ROW_63_Right_63
*3096 PHY_EDGE_ROW_64_Left_129
*3097 PHY_EDGE_ROW_64_Right_64
*3098 PHY_EDGE_ROW_6_Left_71
*3099 PHY_EDGE_ROW_6_Right_6
*3100 PHY_EDGE_ROW_7_Left_72
*3101 PHY_EDGE_ROW_7_Right_7
*3102 PHY_EDGE_ROW_8_Left_73
*3103 PHY_EDGE_ROW_8_Right_8
*3104 PHY_EDGE_ROW_9_Left_74
*3105 PHY_EDGE_ROW_9_Right_9
*3106 TAP_TAPCELL_ROW_0_130
*3107 TAP_TAPCELL_ROW_0_131
*3108 TAP_TAPCELL_ROW_0_132
*3109 TAP_TAPCELL_ROW_0_133
*3110 TAP_TAPCELL_ROW_0_134
*3111 TAP_TAPCELL_ROW_0_135
*3112 TAP_TAPCELL_ROW_0_136
*3113 TAP_TAPCELL_ROW_0_137
*3114 TAP_TAPCELL_ROW_0_138
*3115 TAP_TAPCELL_ROW_0_139
*3116 TAP_TAPCELL_ROW_0_140
*3117 TAP_TAPCELL_ROW_0_141
*3118 TAP_TAPCELL_ROW_0_142
*3119 TAP_TAPCELL_ROW_0_143
*3120 TAP_TAPCELL_ROW_0_144
*3121 TAP_TAPCELL_ROW_10_212
*3122 TAP_TAPCELL_ROW_10_213
*3123 TAP_TAPCELL_ROW_10_214
*3124 TAP_TAPCELL_ROW_10_215
*3125 TAP_TAPCELL_ROW_10_216
*3126 TAP_TAPCELL_ROW_10_217
*3127 TAP_TAPCELL_ROW_10_218
*3128 TAP_TAPCELL_ROW_10_219
*3129 TAP_TAPCELL_ROW_11_220
*3130 TAP_TAPCELL_ROW_11_221
*3131 TAP_TAPCELL_ROW_11_222
*3132 TAP_TAPCELL_ROW_11_223
*3133 TAP_TAPCELL_ROW_11_224
*3134 TAP_TAPCELL_ROW_11_225
*3135 TAP_TAPCELL_ROW_11_226
*3136 TAP_TAPCELL_ROW_12_227
*3137 TAP_TAPCELL_ROW_12_228
*3138 TAP_TAPCELL_ROW_12_229
*3139 TAP_TAPCELL_ROW_12_230
*3140 TAP_TAPCELL_ROW_12_231
*3141 TAP_TAPCELL_ROW_12_232
*3142 TAP_TAPCELL_ROW_12_233
*3143 TAP_TAPCELL_ROW_12_234
*3144 TAP_TAPCELL_ROW_13_235
*3145 TAP_TAPCELL_ROW_13_236
*3146 TAP_TAPCELL_ROW_13_237
*3147 TAP_TAPCELL_ROW_13_238
*3148 TAP_TAPCELL_ROW_13_239
*3149 TAP_TAPCELL_ROW_13_240
*3150 TAP_TAPCELL_ROW_13_241
*3151 TAP_TAPCELL_ROW_14_242
*3152 TAP_TAPCELL_ROW_14_243
*3153 TAP_TAPCELL_ROW_14_244
*3154 TAP_TAPCELL_ROW_14_245
*3155 TAP_TAPCELL_ROW_14_246
*3156 TAP_TAPCELL_ROW_14_247
*3157 TAP_TAPCELL_ROW_14_248
*3158 TAP_TAPCELL_ROW_14_249
*3159 TAP_TAPCELL_ROW_15_250
*3160 TAP_TAPCELL_ROW_15_251
*3161 TAP_TAPCELL_ROW_15_252
*3162 TAP_TAPCELL_ROW_15_253
*3163 TAP_TAPCELL_ROW_15_254
*3164 TAP_TAPCELL_ROW_15_255
*3165 TAP_TAPCELL_ROW_15_256
*3166 TAP_TAPCELL_ROW_16_257
*3167 TAP_TAPCELL_ROW_16_258
*3168 TAP_TAPCELL_ROW_16_259
*3169 TAP_TAPCELL_ROW_16_260
*3170 TAP_TAPCELL_ROW_16_261
*3171 TAP_TAPCELL_ROW_16_262
*3172 TAP_TAPCELL_ROW_16_263
*3173 TAP_TAPCELL_ROW_16_264
*3174 TAP_TAPCELL_ROW_17_265
*3175 TAP_TAPCELL_ROW_17_266
*3176 TAP_TAPCELL_ROW_17_267
*3177 TAP_TAPCELL_ROW_17_268
*3178 TAP_TAPCELL_ROW_17_269
*3179 TAP_TAPCELL_ROW_17_270
*3180 TAP_TAPCELL_ROW_17_271
*3181 TAP_TAPCELL_ROW_18_272
*3182 TAP_TAPCELL_ROW_18_273
*3183 TAP_TAPCELL_ROW_18_274
*3184 TAP_TAPCELL_ROW_18_275
*3185 TAP_TAPCELL_ROW_18_276
*3186 TAP_TAPCELL_ROW_18_277
*3187 TAP_TAPCELL_ROW_18_278
*3188 TAP_TAPCELL_ROW_18_279
*3189 TAP_TAPCELL_ROW_19_280
*3190 TAP_TAPCELL_ROW_19_281
*3191 TAP_TAPCELL_ROW_19_282
*3192 TAP_TAPCELL_ROW_19_283
*3193 TAP_TAPCELL_ROW_19_284
*3194 TAP_TAPCELL_ROW_19_285
*3195 TAP_TAPCELL_ROW_19_286
*3196 TAP_TAPCELL_ROW_1_145
*3197 TAP_TAPCELL_ROW_1_146
*3198 TAP_TAPCELL_ROW_1_147
*3199 TAP_TAPCELL_ROW_1_148
*3200 TAP_TAPCELL_ROW_1_149
*3201 TAP_TAPCELL_ROW_1_150
*3202 TAP_TAPCELL_ROW_1_151
*3203 TAP_TAPCELL_ROW_20_287
*3204 TAP_TAPCELL_ROW_20_288
*3205 TAP_TAPCELL_ROW_20_289
*3206 TAP_TAPCELL_ROW_20_290
*3207 TAP_TAPCELL_ROW_20_291
*3208 TAP_TAPCELL_ROW_20_292
*3209 TAP_TAPCELL_ROW_20_293
*3210 TAP_TAPCELL_ROW_20_294
*3211 TAP_TAPCELL_ROW_21_295
*3212 TAP_TAPCELL_ROW_21_296
*3213 TAP_TAPCELL_ROW_21_297
*3214 TAP_TAPCELL_ROW_21_298
*3215 TAP_TAPCELL_ROW_21_299
*3216 TAP_TAPCELL_ROW_21_300
*3217 TAP_TAPCELL_ROW_21_301
*3218 TAP_TAPCELL_ROW_22_302
*3219 TAP_TAPCELL_ROW_22_303
*3220 TAP_TAPCELL_ROW_22_304
*3221 TAP_TAPCELL_ROW_22_305
*3222 TAP_TAPCELL_ROW_22_306
*3223 TAP_TAPCELL_ROW_22_307
*3224 TAP_TAPCELL_ROW_22_308
*3225 TAP_TAPCELL_ROW_22_309
*3226 TAP_TAPCELL_ROW_23_310
*3227 TAP_TAPCELL_ROW_23_311
*3228 TAP_TAPCELL_ROW_23_312
*3229 TAP_TAPCELL_ROW_23_313
*3230 TAP_TAPCELL_ROW_23_314
*3231 TAP_TAPCELL_ROW_23_315
*3232 TAP_TAPCELL_ROW_23_316
*3233 TAP_TAPCELL_ROW_24_317
*3234 TAP_TAPCELL_ROW_24_318
*3235 TAP_TAPCELL_ROW_24_319
*3236 TAP_TAPCELL_ROW_24_320
*3237 TAP_TAPCELL_ROW_24_321
*3238 TAP_TAPCELL_ROW_24_322
*3239 TAP_TAPCELL_ROW_24_323
*3240 TAP_TAPCELL_ROW_24_324
*3241 TAP_TAPCELL_ROW_25_325
*3242 TAP_TAPCELL_ROW_25_326
*3243 TAP_TAPCELL_ROW_25_327
*3244 TAP_TAPCELL_ROW_25_328
*3245 TAP_TAPCELL_ROW_25_329
*3246 TAP_TAPCELL_ROW_25_330
*3247 TAP_TAPCELL_ROW_25_331
*3248 TAP_TAPCELL_ROW_26_332
*3249 TAP_TAPCELL_ROW_26_333
*3250 TAP_TAPCELL_ROW_26_334
*3251 TAP_TAPCELL_ROW_26_335
*3252 TAP_TAPCELL_ROW_26_336
*3253 TAP_TAPCELL_ROW_26_337
*3254 TAP_TAPCELL_ROW_26_338
*3255 TAP_TAPCELL_ROW_26_339
*3256 TAP_TAPCELL_ROW_27_340
*3257 TAP_TAPCELL_ROW_27_341
*3258 TAP_TAPCELL_ROW_27_342
*3259 TAP_TAPCELL_ROW_27_343
*3260 TAP_TAPCELL_ROW_27_344
*3261 TAP_TAPCELL_ROW_27_345
*3262 TAP_TAPCELL_ROW_27_346
*3263 TAP_TAPCELL_ROW_28_347
*3264 TAP_TAPCELL_ROW_28_348
*3265 TAP_TAPCELL_ROW_28_349
*3266 TAP_TAPCELL_ROW_28_350
*3267 TAP_TAPCELL_ROW_28_351
*3268 TAP_TAPCELL_ROW_28_352
*3269 TAP_TAPCELL_ROW_28_353
*3270 TAP_TAPCELL_ROW_28_354
*3271 TAP_TAPCELL_ROW_29_355
*3272 TAP_TAPCELL_ROW_29_356
*3273 TAP_TAPCELL_ROW_29_357
*3274 TAP_TAPCELL_ROW_29_358
*3275 TAP_TAPCELL_ROW_29_359
*3276 TAP_TAPCELL_ROW_29_360
*3277 TAP_TAPCELL_ROW_29_361
*3278 TAP_TAPCELL_ROW_2_152
*3279 TAP_TAPCELL_ROW_2_153
*3280 TAP_TAPCELL_ROW_2_154
*3281 TAP_TAPCELL_ROW_2_155
*3282 TAP_TAPCELL_ROW_2_156
*3283 TAP_TAPCELL_ROW_2_157
*3284 TAP_TAPCELL_ROW_2_158
*3285 TAP_TAPCELL_ROW_2_159
*3286 TAP_TAPCELL_ROW_30_362
*3287 TAP_TAPCELL_ROW_30_363
*3288 TAP_TAPCELL_ROW_30_364
*3289 TAP_TAPCELL_ROW_30_365
*3290 TAP_TAPCELL_ROW_30_366
*3291 TAP_TAPCELL_ROW_30_367
*3292 TAP_TAPCELL_ROW_30_368
*3293 TAP_TAPCELL_ROW_30_369
*3294 TAP_TAPCELL_ROW_31_370
*3295 TAP_TAPCELL_ROW_31_371
*3296 TAP_TAPCELL_ROW_31_372
*3297 TAP_TAPCELL_ROW_31_373
*3298 TAP_TAPCELL_ROW_31_374
*3299 TAP_TAPCELL_ROW_31_375
*3300 TAP_TAPCELL_ROW_31_376
*3301 TAP_TAPCELL_ROW_32_377
*3302 TAP_TAPCELL_ROW_32_378
*3303 TAP_TAPCELL_ROW_32_379
*3304 TAP_TAPCELL_ROW_32_380
*3305 TAP_TAPCELL_ROW_32_381
*3306 TAP_TAPCELL_ROW_32_382
*3307 TAP_TAPCELL_ROW_32_383
*3308 TAP_TAPCELL_ROW_32_384
*3309 TAP_TAPCELL_ROW_33_385
*3310 TAP_TAPCELL_ROW_33_386
*3311 TAP_TAPCELL_ROW_33_387
*3312 TAP_TAPCELL_ROW_33_388
*3313 TAP_TAPCELL_ROW_33_389
*3314 TAP_TAPCELL_ROW_33_390
*3315 TAP_TAPCELL_ROW_33_391
*3316 TAP_TAPCELL_ROW_34_392
*3317 TAP_TAPCELL_ROW_34_393
*3318 TAP_TAPCELL_ROW_34_394
*3319 TAP_TAPCELL_ROW_34_395
*3320 TAP_TAPCELL_ROW_34_396
*3321 TAP_TAPCELL_ROW_34_397
*3322 TAP_TAPCELL_ROW_34_398
*3323 TAP_TAPCELL_ROW_34_399
*3324 TAP_TAPCELL_ROW_35_400
*3325 TAP_TAPCELL_ROW_35_401
*3326 TAP_TAPCELL_ROW_35_402
*3327 TAP_TAPCELL_ROW_35_403
*3328 TAP_TAPCELL_ROW_35_404
*3329 TAP_TAPCELL_ROW_35_405
*3330 TAP_TAPCELL_ROW_35_406
*3331 TAP_TAPCELL_ROW_36_407
*3332 TAP_TAPCELL_ROW_36_408
*3333 TAP_TAPCELL_ROW_36_409
*3334 TAP_TAPCELL_ROW_36_410
*3335 TAP_TAPCELL_ROW_36_411
*3336 TAP_TAPCELL_ROW_36_412
*3337 TAP_TAPCELL_ROW_36_413
*3338 TAP_TAPCELL_ROW_36_414
*3339 TAP_TAPCELL_ROW_37_415
*3340 TAP_TAPCELL_ROW_37_416
*3341 TAP_TAPCELL_ROW_37_417
*3342 TAP_TAPCELL_ROW_37_418
*3343 TAP_TAPCELL_ROW_37_419
*3344 TAP_TAPCELL_ROW_37_420
*3345 TAP_TAPCELL_ROW_37_421
*3346 TAP_TAPCELL_ROW_38_422
*3347 TAP_TAPCELL_ROW_38_423
*3348 TAP_TAPCELL_ROW_38_424
*3349 TAP_TAPCELL_ROW_38_425
*3350 TAP_TAPCELL_ROW_38_426
*3351 TAP_TAPCELL_ROW_38_427
*3352 TAP_TAPCELL_ROW_38_428
*3353 TAP_TAPCELL_ROW_38_429
*3354 TAP_TAPCELL_ROW_39_430
*3355 TAP_TAPCELL_ROW_39_431
*3356 TAP_TAPCELL_ROW_39_432
*3357 TAP_TAPCELL_ROW_39_433
*3358 TAP_TAPCELL_ROW_39_434
*3359 TAP_TAPCELL_ROW_39_435
*3360 TAP_TAPCELL_ROW_39_436
*3361 TAP_TAPCELL_ROW_3_160
*3362 TAP_TAPCELL_ROW_3_161
*3363 TAP_TAPCELL_ROW_3_162
*3364 TAP_TAPCELL_ROW_3_163
*3365 TAP_TAPCELL_ROW_3_164
*3366 TAP_TAPCELL_ROW_3_165
*3367 TAP_TAPCELL_ROW_3_166
*3368 TAP_TAPCELL_ROW_40_437
*3369 TAP_TAPCELL_ROW_40_438
*3370 TAP_TAPCELL_ROW_40_439
*3371 TAP_TAPCELL_ROW_40_440
*3372 TAP_TAPCELL_ROW_40_441
*3373 TAP_TAPCELL_ROW_40_442
*3374 TAP_TAPCELL_ROW_40_443
*3375 TAP_TAPCELL_ROW_40_444
*3376 TAP_TAPCELL_ROW_41_445
*3377 TAP_TAPCELL_ROW_41_446
*3378 TAP_TAPCELL_ROW_41_447
*3379 TAP_TAPCELL_ROW_41_448
*3380 TAP_TAPCELL_ROW_41_449
*3381 TAP_TAPCELL_ROW_41_450
*3382 TAP_TAPCELL_ROW_41_451
*3383 TAP_TAPCELL_ROW_42_452
*3384 TAP_TAPCELL_ROW_42_453
*3385 TAP_TAPCELL_ROW_42_454
*3386 TAP_TAPCELL_ROW_42_455
*3387 TAP_TAPCELL_ROW_42_456
*3388 TAP_TAPCELL_ROW_42_457
*3389 TAP_TAPCELL_ROW_42_458
*3390 TAP_TAPCELL_ROW_42_459
*3391 TAP_TAPCELL_ROW_43_460
*3392 TAP_TAPCELL_ROW_43_461
*3393 TAP_TAPCELL_ROW_43_462
*3394 TAP_TAPCELL_ROW_43_463
*3395 TAP_TAPCELL_ROW_43_464
*3396 TAP_TAPCELL_ROW_43_465
*3397 TAP_TAPCELL_ROW_43_466
*3398 TAP_TAPCELL_ROW_44_467
*3399 TAP_TAPCELL_ROW_44_468
*3400 TAP_TAPCELL_ROW_44_469
*3401 TAP_TAPCELL_ROW_44_470
*3402 TAP_TAPCELL_ROW_44_471
*3403 TAP_TAPCELL_ROW_44_472
*3404 TAP_TAPCELL_ROW_44_473
*3405 TAP_TAPCELL_ROW_44_474
*3406 TAP_TAPCELL_ROW_45_475
*3407 TAP_TAPCELL_ROW_45_476
*3408 TAP_TAPCELL_ROW_45_477
*3409 TAP_TAPCELL_ROW_45_478
*3410 TAP_TAPCELL_ROW_45_479
*3411 TAP_TAPCELL_ROW_45_480
*3412 TAP_TAPCELL_ROW_45_481
*3413 TAP_TAPCELL_ROW_46_482
*3414 TAP_TAPCELL_ROW_46_483
*3415 TAP_TAPCELL_ROW_46_484
*3416 TAP_TAPCELL_ROW_46_485
*3417 TAP_TAPCELL_ROW_46_486
*3418 TAP_TAPCELL_ROW_46_487
*3419 TAP_TAPCELL_ROW_46_488
*3420 TAP_TAPCELL_ROW_46_489
*3421 TAP_TAPCELL_ROW_47_490
*3422 TAP_TAPCELL_ROW_47_491
*3423 TAP_TAPCELL_ROW_47_492
*3424 TAP_TAPCELL_ROW_47_493
*3425 TAP_TAPCELL_ROW_47_494
*3426 TAP_TAPCELL_ROW_47_495
*3427 TAP_TAPCELL_ROW_47_496
*3428 TAP_TAPCELL_ROW_48_497
*3429 TAP_TAPCELL_ROW_48_498
*3430 TAP_TAPCELL_ROW_48_499
*3431 TAP_TAPCELL_ROW_48_500
*3432 TAP_TAPCELL_ROW_48_501
*3433 TAP_TAPCELL_ROW_48_502
*3434 TAP_TAPCELL_ROW_48_503
*3435 TAP_TAPCELL_ROW_48_504
*3436 TAP_TAPCELL_ROW_49_505
*3437 TAP_TAPCELL_ROW_49_506
*3438 TAP_TAPCELL_ROW_49_507
*3439 TAP_TAPCELL_ROW_49_508
*3440 TAP_TAPCELL_ROW_49_509
*3441 TAP_TAPCELL_ROW_49_510
*3442 TAP_TAPCELL_ROW_49_511
*3443 TAP_TAPCELL_ROW_4_167
*3444 TAP_TAPCELL_ROW_4_168
*3445 TAP_TAPCELL_ROW_4_169
*3446 TAP_TAPCELL_ROW_4_170
*3447 TAP_TAPCELL_ROW_4_171
*3448 TAP_TAPCELL_ROW_4_172
*3449 TAP_TAPCELL_ROW_4_173
*3450 TAP_TAPCELL_ROW_4_174
*3451 TAP_TAPCELL_ROW_50_512
*3452 TAP_TAPCELL_ROW_50_513
*3453 TAP_TAPCELL_ROW_50_514
*3454 TAP_TAPCELL_ROW_50_515
*3455 TAP_TAPCELL_ROW_50_516
*3456 TAP_TAPCELL_ROW_50_517
*3457 TAP_TAPCELL_ROW_50_518
*3458 TAP_TAPCELL_ROW_50_519
*3459 TAP_TAPCELL_ROW_51_520
*3460 TAP_TAPCELL_ROW_51_521
*3461 TAP_TAPCELL_ROW_51_522
*3462 TAP_TAPCELL_ROW_51_523
*3463 TAP_TAPCELL_ROW_51_524
*3464 TAP_TAPCELL_ROW_51_525
*3465 TAP_TAPCELL_ROW_51_526
*3466 TAP_TAPCELL_ROW_52_527
*3467 TAP_TAPCELL_ROW_52_528
*3468 TAP_TAPCELL_ROW_52_529
*3469 TAP_TAPCELL_ROW_52_530
*3470 TAP_TAPCELL_ROW_52_531
*3471 TAP_TAPCELL_ROW_52_532
*3472 TAP_TAPCELL_ROW_52_533
*3473 TAP_TAPCELL_ROW_52_534
*3474 TAP_TAPCELL_ROW_53_535
*3475 TAP_TAPCELL_ROW_53_536
*3476 TAP_TAPCELL_ROW_53_537
*3477 TAP_TAPCELL_ROW_53_538
*3478 TAP_TAPCELL_ROW_53_539
*3479 TAP_TAPCELL_ROW_53_540
*3480 TAP_TAPCELL_ROW_53_541
*3481 TAP_TAPCELL_ROW_54_542
*3482 TAP_TAPCELL_ROW_54_543
*3483 TAP_TAPCELL_ROW_54_544
*3484 TAP_TAPCELL_ROW_54_545
*3485 TAP_TAPCELL_ROW_54_546
*3486 TAP_TAPCELL_ROW_54_547
*3487 TAP_TAPCELL_ROW_54_548
*3488 TAP_TAPCELL_ROW_54_549
*3489 TAP_TAPCELL_ROW_55_550
*3490 TAP_TAPCELL_ROW_55_551
*3491 TAP_TAPCELL_ROW_55_552
*3492 TAP_TAPCELL_ROW_55_553
*3493 TAP_TAPCELL_ROW_55_554
*3494 TAP_TAPCELL_ROW_55_555
*3495 TAP_TAPCELL_ROW_55_556
*3496 TAP_TAPCELL_ROW_56_557
*3497 TAP_TAPCELL_ROW_56_558
*3498 TAP_TAPCELL_ROW_56_559
*3499 TAP_TAPCELL_ROW_56_560
*3500 TAP_TAPCELL_ROW_56_561
*3501 TAP_TAPCELL_ROW_56_562
*3502 TAP_TAPCELL_ROW_56_563
*3503 TAP_TAPCELL_ROW_56_564
*3504 TAP_TAPCELL_ROW_57_565
*3505 TAP_TAPCELL_ROW_57_566
*3506 TAP_TAPCELL_ROW_57_567
*3507 TAP_TAPCELL_ROW_57_568
*3508 TAP_TAPCELL_ROW_57_569
*3509 TAP_TAPCELL_ROW_57_570
*3510 TAP_TAPCELL_ROW_57_571
*3511 TAP_TAPCELL_ROW_58_572
*3512 TAP_TAPCELL_ROW_58_573
*3513 TAP_TAPCELL_ROW_58_574
*3514 TAP_TAPCELL_ROW_58_575
*3515 TAP_TAPCELL_ROW_58_576
*3516 TAP_TAPCELL_ROW_58_577
*3517 TAP_TAPCELL_ROW_58_578
*3518 TAP_TAPCELL_ROW_58_579
*3519 TAP_TAPCELL_ROW_59_580
*3520 TAP_TAPCELL_ROW_59_581
*3521 TAP_TAPCELL_ROW_59_582
*3522 TAP_TAPCELL_ROW_59_583
*3523 TAP_TAPCELL_ROW_59_584
*3524 TAP_TAPCELL_ROW_59_585
*3525 TAP_TAPCELL_ROW_59_586
*3526 TAP_TAPCELL_ROW_5_175
*3527 TAP_TAPCELL_ROW_5_176
*3528 TAP_TAPCELL_ROW_5_177
*3529 TAP_TAPCELL_ROW_5_178
*3530 TAP_TAPCELL_ROW_5_179
*3531 TAP_TAPCELL_ROW_5_180
*3532 TAP_TAPCELL_ROW_5_181
*3533 TAP_TAPCELL_ROW_60_587
*3534 TAP_TAPCELL_ROW_60_588
*3535 TAP_TAPCELL_ROW_60_589
*3536 TAP_TAPCELL_ROW_60_590
*3537 TAP_TAPCELL_ROW_60_591
*3538 TAP_TAPCELL_ROW_60_592
*3539 TAP_TAPCELL_ROW_60_593
*3540 TAP_TAPCELL_ROW_60_594
*3541 TAP_TAPCELL_ROW_61_595
*3542 TAP_TAPCELL_ROW_61_596
*3543 TAP_TAPCELL_ROW_61_597
*3544 TAP_TAPCELL_ROW_61_598
*3545 TAP_TAPCELL_ROW_61_599
*3546 TAP_TAPCELL_ROW_61_600
*3547 TAP_TAPCELL_ROW_61_601
*3548 TAP_TAPCELL_ROW_62_602
*3549 TAP_TAPCELL_ROW_62_603
*3550 TAP_TAPCELL_ROW_62_604
*3551 TAP_TAPCELL_ROW_62_605
*3552 TAP_TAPCELL_ROW_62_606
*3553 TAP_TAPCELL_ROW_62_607
*3554 TAP_TAPCELL_ROW_62_608
*3555 TAP_TAPCELL_ROW_62_609
*3556 TAP_TAPCELL_ROW_63_610
*3557 TAP_TAPCELL_ROW_63_611
*3558 TAP_TAPCELL_ROW_63_612
*3559 TAP_TAPCELL_ROW_63_613
*3560 TAP_TAPCELL_ROW_63_614
*3561 TAP_TAPCELL_ROW_63_615
*3562 TAP_TAPCELL_ROW_63_616
*3563 TAP_TAPCELL_ROW_64_617
*3564 TAP_TAPCELL_ROW_64_618
*3565 TAP_TAPCELL_ROW_64_619
*3566 TAP_TAPCELL_ROW_64_620
*3567 TAP_TAPCELL_ROW_64_621
*3568 TAP_TAPCELL_ROW_64_622
*3569 TAP_TAPCELL_ROW_64_623
*3570 TAP_TAPCELL_ROW_64_624
*3571 TAP_TAPCELL_ROW_64_625
*3572 TAP_TAPCELL_ROW_64_626
*3573 TAP_TAPCELL_ROW_64_627
*3574 TAP_TAPCELL_ROW_64_628
*3575 TAP_TAPCELL_ROW_64_629
*3576 TAP_TAPCELL_ROW_64_630
*3577 TAP_TAPCELL_ROW_64_631
*3578 TAP_TAPCELL_ROW_6_182
*3579 TAP_TAPCELL_ROW_6_183
*3580 TAP_TAPCELL_ROW_6_184
*3581 TAP_TAPCELL_ROW_6_185
*3582 TAP_TAPCELL_ROW_6_186
*3583 TAP_TAPCELL_ROW_6_187
*3584 TAP_TAPCELL_ROW_6_188
*3585 TAP_TAPCELL_ROW_6_189
*3586 TAP_TAPCELL_ROW_7_190
*3587 TAP_TAPCELL_ROW_7_191
*3588 TAP_TAPCELL_ROW_7_192
*3589 TAP_TAPCELL_ROW_7_193
*3590 TAP_TAPCELL_ROW_7_194
*3591 TAP_TAPCELL_ROW_7_195
*3592 TAP_TAPCELL_ROW_7_196
*3593 TAP_TAPCELL_ROW_8_197
*3594 TAP_TAPCELL_ROW_8_198
*3595 TAP_TAPCELL_ROW_8_199
*3596 TAP_TAPCELL_ROW_8_200
*3597 TAP_TAPCELL_ROW_8_201
*3598 TAP_TAPCELL_ROW_8_202
*3599 TAP_TAPCELL_ROW_8_203
*3600 TAP_TAPCELL_ROW_8_204
*3601 TAP_TAPCELL_ROW_9_205
*3602 TAP_TAPCELL_ROW_9_206
*3603 TAP_TAPCELL_ROW_9_207
*3604 TAP_TAPCELL_ROW_9_208
*3605 TAP_TAPCELL_ROW_9_209
*3606 TAP_TAPCELL_ROW_9_210
*3607 TAP_TAPCELL_ROW_9_211
*3608 _3_
*3609 _4_
*3610 _5_
*3611 _6_
*3612 _7_
*3613 _8_
*3614 _9_
*3615 input1
*3616 input2
*3617 input3
*3618 input4
*3619 output5
*3620 output6
*3621 output7
*3622 output8

*PORTS
A[0] I
A[1] I
A[2] I
A[3] I
Y[0] O
Y[1] O
Y[2] O
Y[3] O

*D_NET *1 0.000497791
*CONN
*P A[0] I
*I *3615:A I *D sky130_fd_sc_hd__clkbuf_2
*CAP
1 A[0] 0.000235105
2 *3615:A 0
3 *1:19 0.000235105
4 *1:19 *4:19 2.75816e-05
*RES
1 A[0] *1:19 40.2817 
2 *1:19 *3615:A 23 
*END

*D_NET *2 0.000634558
*CONN
*P A[1] I
*I *3616:A I *D sky130_fd_sc_hd__dlymetal6s2s_1
*CAP
1 A[1] 0.000297003
2 *3616:A 0
3 *2:19 0.000297003
4 *2:19 *3:19 1.15105e-05
5 *2:19 *4:19 2.90419e-05
6 *2:19 *17:10 0
*RES
1 A[1] *2:19 41.0719 
2 *2:19 *3616:A 23 
*END

*D_NET *3 0.000783616
*CONN
*P A[2] I
*I *3617:A I *D sky130_fd_sc_hd__buf_1
*CAP
1 A[2] 0.000386053
2 *3617:A 0
3 *3:19 0.000386053
4 *2:19 *3:19 1.15105e-05
*RES
1 A[2] *3:19 42.4805 
2 *3:19 *3617:A 23 
*END

*D_NET *4 0.000590596
*CONN
*P A[3] I
*I *3618:A I *D sky130_fd_sc_hd__buf_1
*CAP
1 A[3] 0.000266986
2 *3618:A 0
3 *4:19 0.000266986
4 *1:19 *4:19 2.75816e-05
5 *2:19 *4:19 2.90419e-05
*RES
1 A[3] *4:19 40.7198 
2 *4:19 *3618:A 23 
*END

*D_NET *7 0.000527737
*CONN
*P Y[0] O
*I *3619:X O *D sky130_fd_sc_hd__buf_2
*CAP
1 Y[0] 0.000220745
2 *3619:X 0.000220745
3 Y[0] Y[1] 1.92108e-05
4 Y[0] *18:12 6.70363e-05
*RES
1 *3619:X Y[0] 48.9459 
*END

*D_NET *8 0.000398235
*CONN
*P Y[1] O
*I *3620:X O *D sky130_fd_sc_hd__buf_2
*CAP
1 Y[1] 0.000144848
2 *3620:X 0.000144848
3 Y[1] Y[3] 3.88291e-05
4 Y[1] *18:12 5.04995e-05
5 Y[0] Y[1] 1.92108e-05
*RES
1 *3620:X Y[1] 47.0876 
*END

*D_NET *9 0.000417326
*CONN
*P Y[2] O
*I *3621:X O *D sky130_fd_sc_hd__buf_2
*CAP
1 Y[2] 0.000195756
2 *3621:X 0.000195756
3 Y[2] Y[3] 2.58126e-05
*RES
1 *3621:X Y[2] 47.8895 
*END

*D_NET *10 0.00045679
*CONN
*P Y[3] O
*I *3622:X O *D sky130_fd_sc_hd__buf_2
*CAP
1 Y[3] 0.000196074
2 *3622:X 0.000196074
3 Y[1] Y[3] 3.88291e-05
4 Y[2] Y[3] 2.58126e-05
*RES
1 *3622:X Y[3] 48.144 
*END

*D_NET *11 0.00086173
*CONN
*I *3611:B I *D sky130_fd_sc_hd__and2_1
*I *3610:Y O *D sky130_fd_sc_hd__o21ai_1
*CAP
1 *3611:B 0
2 *3610:Y 0.00024763
3 *11:10 0.00024763
4 *11:10 *3611:A 0.000141869
5 *11:10 *15:19 0.0002246
*RES
1 *3610:Y *11:10 42.4329 
2 *11:10 *3611:B 38 
*END

*D_NET *12 6.69045e-05
*CONN
*I *3612:A I *D sky130_fd_sc_hd__buf_1
*I *3611:X O *D sky130_fd_sc_hd__and2_1
*CAP
1 *3612:A 3.34522e-05
2 *3611:X 3.34522e-05
*RES
1 *3611:X *3612:A 46.6214 
*END

*D_NET *13 0.00117239
*CONN
*I *3613:B I *D sky130_fd_sc_hd__xor2_1
*I *3611:A I *D sky130_fd_sc_hd__and2_1
*I *3609:X O *D sky130_fd_sc_hd__or3_1
*CAP
1 *3613:B 0
2 *3611:A 0.000154374
3 *3609:X 0.000203084
4 *13:10 0.000357458
5 *3611:A *3609:C 0
6 *3611:A *15:29 3.92407e-05
7 *3611:A *16:14 0
8 *13:10 *3609:C 0
9 *13:10 *3614:A 0.000137651
10 *13:10 *15:29 0.000138718
11 *11:10 *3611:A 0.000141869
*RES
1 *3609:X *13:10 41.48 
2 *13:10 *3611:A 40.9621 
3 *13:10 *3613:B 38 
*END

*D_NET *14 0.0170242
*CONN
*I *3614:A I *D sky130_fd_sc_hd__buf_1
*I *3609:B I *D sky130_fd_sc_hd__or3_1
*I *3610:A2 I *D sky130_fd_sc_hd__o21ai_1
*I *3608:B I *D sky130_fd_sc_hd__xor2_1
*I *3615:X O *D sky130_fd_sc_hd__clkbuf_2
*CAP
1 *3614:A 0.00017613
2 *3609:B 0
3 *3610:A2 0
4 *3608:B 0.000315376
5 *3615:X 0
6 *14:34 0.000364483
7 *14:14 0.000389897
8 *14:10 0.000554262
9 *14:6 0.00746
10 *14:4 0.00716861
11 *3608:B *3608:A 7.59964e-05
12 *3608:B *3613:A 9.45591e-05
13 *3608:B *15:19 2.98648e-05
14 *3608:B *17:14 5.67058e-05
15 *3614:A *3609:C 7.53384e-06
16 *3614:A *15:29 5.50049e-05
17 *14:10 *3609:C 4.78793e-05
18 *14:10 *21:8 0
19 *14:14 *3609:C 4.08537e-05
20 *14:34 *3609:C 4.94192e-05
21 *13:10 *3614:A 0.000137651
*RES
1 *3615:X *14:4 23 
2 *14:4 *14:6 95.4307 
3 *14:6 *14:10 20.7793 
4 *14:10 *14:14 16.2014 
5 *14:14 *3608:B 29.38 
6 *14:14 *3610:A2 23 
7 *14:10 *14:34 17.5271 
8 *14:34 *3609:B 23 
9 *14:34 *3614:A 26.8736 
*END

*D_NET *15 0.0153109
*CONN
*I *3608:A I *D sky130_fd_sc_hd__xor2_1
*I *3609:A I *D sky130_fd_sc_hd__or3_1
*I *3610:A1 I *D sky130_fd_sc_hd__o21ai_1
*I *3616:X O *D sky130_fd_sc_hd__dlymetal6s2s_1
*CAP
1 *3608:A 0.000126779
2 *3609:A 0
3 *3610:A1 2.14194e-05
4 *3616:X 0
5 *15:29 0.000181099
6 *15:19 0.000426019
7 *15:10 0.00282239
8 *15:8 0.00379485
9 *15:4 0.00111202
10 *3610:A1 *3613:A 5.90675e-06
11 *15:8 *17:14 0.00265493
12 *15:10 *17:14 0.00330467
13 *15:19 *3613:A 0.000184527
14 *15:19 *17:14 4.95081e-05
15 *15:29 *3609:C 0
16 *15:29 *3613:A 0
17 *15:29 *21:8 6.33511e-05
18 *3608:B *3608:A 7.59964e-05
19 *3608:B *15:19 2.98648e-05
20 *3611:A *15:29 3.92407e-05
21 *3614:A *15:29 5.50049e-05
22 *11:10 *15:19 0.0002246
23 *13:10 *15:29 0.000138718
*RES
1 *3616:X *15:4 23 
2 *15:4 *15:8 31.3718 
3 *15:8 *15:10 63.7482 
4 *15:10 *3610:A1 23.4971 
5 *15:10 *15:19 3.95643 
6 *15:19 *15:29 34.0807 
7 *15:29 *3609:A 23 
8 *15:19 *3608:A 26.0243 
*END

*D_NET *16 0.0128867
*CONN
*I *3609:C I *D sky130_fd_sc_hd__or3_1
*I *3610:B1 I *D sky130_fd_sc_hd__o21ai_1
*I *3617:X O *D sky130_fd_sc_hd__buf_1
*CAP
1 *3609:C 0.000224952
2 *3610:B1 0
3 *3617:X 0
4 *16:14 0.000434142
5 *16:10 0.00371917
6 *16:8 0.00593637
7 *16:4 0.00242639
8 *3609:C *21:8 0
9 *3611:A *3609:C 0
10 *3611:A *16:14 0
11 *3614:A *3609:C 7.53384e-06
12 *13:10 *3609:C 0
13 *14:10 *3609:C 4.78793e-05
14 *14:14 *3609:C 4.08537e-05
15 *14:34 *3609:C 4.94192e-05
16 *15:29 *3609:C 0
*RES
1 *3617:X *16:4 23 
2 *16:4 *16:8 32.2004 
3 *16:8 *16:10 65.1775 
4 *16:10 *16:14 17.9621 
5 *16:14 *3610:B1 38 
6 *16:14 *3609:C 42.5364 
*END

*D_NET *17 0.0140591
*CONN
*I *3613:A I *D sky130_fd_sc_hd__xor2_1
*I *3618:X O *D sky130_fd_sc_hd__buf_1
*CAP
1 *3613:A 6.34865e-05
2 *3618:X 0.000457582
3 *17:14 0.00339655
4 *17:12 0.00333307
5 *17:10 0.000457582
6 *3608:B *3613:A 9.45591e-05
7 *3608:B *17:14 5.67058e-05
8 *3610:A1 *3613:A 5.90675e-06
9 *2:19 *17:10 0
10 *15:8 *17:14 0.00265493
11 *15:10 *17:14 0.00330467
12 *15:19 *3613:A 0.000184527
13 *15:19 *17:14 4.95081e-05
14 *15:29 *3613:A 0
*RES
1 *3618:X *17:10 45.25 
2 *17:10 *17:12 15 
3 *17:12 *17:14 93.525 
4 *17:14 *3613:A 25.5479 
*END

*D_NET *18 0.0151022
*CONN
*I *3619:A I *D sky130_fd_sc_hd__buf_2
*I *3614:X O *D sky130_fd_sc_hd__buf_1
*CAP
1 *3619:A 0
2 *3614:X 0
3 *18:12 0.000240558
4 *18:6 0.00749234
5 *18:4 0.00725178
6 Y[0] *18:12 6.70363e-05
7 Y[1] *18:12 5.04995e-05
*RES
1 *3614:X *18:4 23 
2 *18:4 *18:6 96.3836 
3 *18:6 *18:12 34.7229 
4 *18:12 *3619:A 23 
*END

*D_NET *19 0.0100977
*CONN
*I *3620:A I *D sky130_fd_sc_hd__buf_2
*I *3608:X O *D sky130_fd_sc_hd__xor2_1
*CAP
1 *3620:A 0
2 *3608:X 0
3 *19:10 0.00349528
4 *19:8 0.00504886
5 *19:4 0.00155359
*RES
1 *3608:X *19:4 23 
2 *19:4 *19:8 28.9896 
3 *19:8 *19:10 64.7011 
4 *19:10 *3620:A 23 
*END

*D_NET *20 0.0135401
*CONN
*I *3621:A I *D sky130_fd_sc_hd__buf_2
*I *3612:X O *D sky130_fd_sc_hd__buf_1
*CAP
1 *3621:A 0
2 *3612:X 0
3 *20:18 0.00103693
4 *20:10 0.00448013
5 *20:8 0.00573311
6 *20:4 0.0022899
*RES
1 *3612:X *20:4 23 
2 *20:4 *20:8 30.8954 
3 *20:8 *20:10 58.5075 
4 *20:10 *20:18 48.8293 
5 *20:18 *3621:A 23 
*END

*D_NET *21 0.0111237
*CONN
*I *3622:A I *D sky130_fd_sc_hd__buf_2
*I *22:DIODE I *D sky130_fd_sc_hd__diode_2
*I *3613:X O *D sky130_fd_sc_hd__xor2_1
*CAP
1 *3622:A 0.000106268
2 *22:DIODE 0
3 *3613:X 0.000283776
4 *21:12 0.00524641
5 *21:10 0.00514015
6 *21:8 0.000283776
7 *3609:C *21:8 0
8 *14:10 *21:8 0
9 *15:29 *21:8 6.33511e-05
*RES
1 *3613:X *21:8 42.7229 
2 *21:8 *21:10 15 
3 *21:10 *21:12 94.4779 
4 *21:12 *22:DIODE 23 
5 *21:12 *3622:A 25.0507 
*END
