*SPEF "ieee 1481-1999"
*DESIGN "alu"
*DATE "11:51:53 Wednesday June 18, 2025"
*VENDOR "The OpenROAD Project"
*PROGRAM "OpenROAD"
*VERSION "b16bda7e82721d10566ff7e2b68f1ff0be9f9e38"
*DESIGN_FLOW "NAME_SCOPE LOCAL" "PIN_CAP NONE"
*DIVIDER /
*DELIMITER :
*BUS_DELIMITER []
*T_UNIT 1 NS
*C_UNIT 1 PF
*R_UNIT 1 OHM
*L_UNIT 1 HENRY

*NAME_MAP
*3 a[0]
*4 a[1]
*5 a[2]
*6 a[3]
*7 a[4]
*8 a[5]
*9 a[6]
*10 a[7]
*11 b[0]
*12 b[1]
*13 b[2]
*14 b[3]
*15 b[4]
*16 b[5]
*17 b[6]
*18 b[7]
*19 clk
*20 result[0]
*21 result[1]
*22 result[2]
*23 result[3]
*24 result[4]
*25 result[5]
*26 result[6]
*27 result[7]
*28 sel[0]
*29 sel[1]
*30 _000_
*31 _001_
*32 _002_
*33 _003_
*34 _004_
*35 _005_
*36 _006_
*37 _007_
*38 _008_
*39 _009_
*40 _010_
*41 _011_
*42 _012_
*43 _013_
*44 _014_
*45 _015_
*46 _016_
*47 _017_
*48 _018_
*49 _019_
*50 _020_
*51 _021_
*52 _022_
*53 _023_
*54 _024_
*55 _025_
*56 _026_
*57 _027_
*58 _028_
*59 _029_
*60 _030_
*61 _031_
*62 _032_
*63 _033_
*64 _034_
*65 _035_
*66 _036_
*67 _037_
*68 _038_
*69 _039_
*70 _040_
*71 _041_
*72 _042_
*73 _043_
*74 _044_
*75 _045_
*76 _046_
*77 _047_
*78 _048_
*79 _049_
*80 _050_
*81 _051_
*82 _052_
*83 _053_
*84 _054_
*85 _055_
*86 _056_
*87 _057_
*88 _058_
*89 _059_
*90 _060_
*91 _061_
*92 _062_
*93 _063_
*94 _064_
*95 _065_
*96 _066_
*97 _067_
*98 _068_
*99 _069_
*100 _070_
*101 _071_
*102 _072_
*103 _073_
*104 _074_
*105 _075_
*106 _076_
*107 _077_
*108 _078_
*109 _079_
*110 clknet_0_clk
*111 clknet_1_0__leaf_clk
*112 clknet_1_1__leaf_clk
*113 net1
*114 net10
*115 net11
*116 net12
*117 net13
*118 net14
*119 net15
*120 net16
*121 net17
*122 net18
*123 net19
*124 net2
*125 net20
*126 net21
*127 net22
*128 net23
*129 net24
*130 net25
*131 net26
*132 net3
*133 net4
*134 net5
*135 net6
*136 net7
*137 net8
*138 net9
*139 FILLER_0_0_15
*140 FILLER_0_0_27
*141 FILLER_0_0_3
*142 FILLER_0_0_39
*143 FILLER_0_0_51
*144 FILLER_0_0_55
*145 FILLER_0_0_57
*146 FILLER_0_0_63
*147 FILLER_0_0_75
*148 FILLER_0_0_83
*149 FILLER_0_0_85
*150 FILLER_0_10_18
*151 FILLER_0_10_25
*152 FILLER_0_10_29
*153 FILLER_0_10_38
*154 FILLER_0_10_42
*155 FILLER_0_10_46
*156 FILLER_0_10_54
*157 FILLER_0_10_6
*158 FILLER_0_10_71
*159 FILLER_0_10_83
*160 FILLER_0_10_85
*161 FILLER_0_11_19
*162 FILLER_0_11_31
*163 FILLER_0_11_43
*164 FILLER_0_11_51
*165 FILLER_0_11_69
*166 FILLER_0_11_7
*167 FILLER_0_12_15
*168 FILLER_0_12_27
*169 FILLER_0_12_29
*170 FILLER_0_12_48
*171 FILLER_0_12_6
*172 FILLER_0_12_73
*173 FILLER_0_12_85
*174 FILLER_0_13_3
*175 FILLER_0_13_46
*176 FILLER_0_13_89
*177 FILLER_0_14_16
*178 FILLER_0_14_29
*179 FILLER_0_14_41
*180 FILLER_0_14_51
*181 FILLER_0_14_55
*182 FILLER_0_14_6
*183 FILLER_0_14_72
*184 FILLER_0_14_85
*185 FILLER_0_1_11
*186 FILLER_0_1_19
*187 FILLER_0_1_27
*188 FILLER_0_1_3
*189 FILLER_0_1_37
*190 FILLER_0_1_57
*191 FILLER_0_1_63
*192 FILLER_0_1_80
*193 FILLER_0_1_88
*194 FILLER_0_2_3
*195 FILLER_0_2_43
*196 FILLER_0_2_85
*197 FILLER_0_3_16
*198 FILLER_0_3_24
*199 FILLER_0_3_3
*200 FILLER_0_3_32
*201 FILLER_0_3_36
*202 FILLER_0_3_88
*203 FILLER_0_3_9
*204 FILLER_0_4_13
*205 FILLER_0_4_20
*206 FILLER_0_4_29
*207 FILLER_0_4_41
*208 FILLER_0_4_49
*209 FILLER_0_4_66
*210 FILLER_0_4_72
*211 FILLER_0_4_78
*212 FILLER_0_4_85
*213 FILLER_0_5_20
*214 FILLER_0_5_3
*215 FILLER_0_5_36
*216 FILLER_0_5_48
*217 FILLER_0_5_57
*218 FILLER_0_5_69
*219 FILLER_0_5_86
*220 FILLER_0_6_25
*221 FILLER_0_6_29
*222 FILLER_0_6_33
*223 FILLER_0_6_50
*224 FILLER_0_6_58
*225 FILLER_0_6_69
*226 FILLER_0_6_76
*227 FILLER_0_6_85
*228 FILLER_0_6_9
*229 FILLER_0_7_19
*230 FILLER_0_7_31
*231 FILLER_0_7_39
*232 FILLER_0_7_47
*233 FILLER_0_7_63
*234 FILLER_0_7_7
*235 FILLER_0_7_73
*236 FILLER_0_8_20
*237 FILLER_0_8_29
*238 FILLER_0_8_3
*239 FILLER_0_8_41
*240 FILLER_0_8_47
*241 FILLER_0_8_73
*242 FILLER_0_8_81
*243 FILLER_0_8_85
*244 FILLER_0_9_13
*245 FILLER_0_9_27
*246 FILLER_0_9_38
*247 FILLER_0_9_55
*248 FILLER_0_9_78
*249 FILLER_0_9_86
*250 PHY_EDGE_ROW_0_Left_15
*251 PHY_EDGE_ROW_0_Right_0
*252 PHY_EDGE_ROW_10_Left_25
*253 PHY_EDGE_ROW_10_Right_10
*254 PHY_EDGE_ROW_11_Left_26
*255 PHY_EDGE_ROW_11_Right_11
*256 PHY_EDGE_ROW_12_Left_27
*257 PHY_EDGE_ROW_12_Right_12
*258 PHY_EDGE_ROW_13_Left_28
*259 PHY_EDGE_ROW_13_Right_13
*260 PHY_EDGE_ROW_14_Left_29
*261 PHY_EDGE_ROW_14_Right_14
*262 PHY_EDGE_ROW_1_Left_16
*263 PHY_EDGE_ROW_1_Right_1
*264 PHY_EDGE_ROW_2_Left_17
*265 PHY_EDGE_ROW_2_Right_2
*266 PHY_EDGE_ROW_3_Left_18
*267 PHY_EDGE_ROW_3_Right_3
*268 PHY_EDGE_ROW_4_Left_19
*269 PHY_EDGE_ROW_4_Right_4
*270 PHY_EDGE_ROW_5_Left_20
*271 PHY_EDGE_ROW_5_Right_5
*272 PHY_EDGE_ROW_6_Left_21
*273 PHY_EDGE_ROW_6_Right_6
*274 PHY_EDGE_ROW_7_Left_22
*275 PHY_EDGE_ROW_7_Right_7
*276 PHY_EDGE_ROW_8_Left_23
*277 PHY_EDGE_ROW_8_Right_8
*278 PHY_EDGE_ROW_9_Left_24
*279 PHY_EDGE_ROW_9_Right_9
*280 TAP_TAPCELL_ROW_0_30
*281 TAP_TAPCELL_ROW_0_31
*282 TAP_TAPCELL_ROW_0_32
*283 TAP_TAPCELL_ROW_10_46
*284 TAP_TAPCELL_ROW_10_47
*285 TAP_TAPCELL_ROW_11_48
*286 TAP_TAPCELL_ROW_12_49
*287 TAP_TAPCELL_ROW_12_50
*288 TAP_TAPCELL_ROW_13_51
*289 TAP_TAPCELL_ROW_14_52
*290 TAP_TAPCELL_ROW_14_53
*291 TAP_TAPCELL_ROW_14_54
*292 TAP_TAPCELL_ROW_1_33
*293 TAP_TAPCELL_ROW_2_34
*294 TAP_TAPCELL_ROW_2_35
*295 TAP_TAPCELL_ROW_3_36
*296 TAP_TAPCELL_ROW_4_37
*297 TAP_TAPCELL_ROW_4_38
*298 TAP_TAPCELL_ROW_5_39
*299 TAP_TAPCELL_ROW_6_40
*300 TAP_TAPCELL_ROW_6_41
*301 TAP_TAPCELL_ROW_7_42
*302 TAP_TAPCELL_ROW_8_43
*303 TAP_TAPCELL_ROW_8_44
*304 TAP_TAPCELL_ROW_9_45
*305 _080_
*306 _081_
*307 _082_
*308 _083_
*309 _084_
*310 _085_
*311 _086_
*312 _087_
*313 _088_
*314 _089_
*315 _090_
*316 _091_
*317 _092_
*318 _093_
*319 _094_
*320 _095_
*321 _096_
*322 _097_
*323 _098_
*324 _099_
*325 _100_
*326 _101_
*327 _102_
*328 _103_
*329 _104_
*330 _105_
*331 _106_
*332 _107_
*333 _108_
*334 _109_
*335 _110_
*336 _111_
*337 _112_
*338 _113_
*339 _114_
*340 _115_
*341 _116_
*342 _117_
*343 _118_
*344 _119_
*345 _120_
*346 _121_
*347 _122_
*348 _123_
*349 _124_
*350 _125_
*351 _126_
*352 _127_
*353 _128_
*354 _129_
*355 _130_
*356 _131_
*357 _132_
*358 _133_
*359 _134_
*360 _135_
*361 _136_
*362 _137_
*363 _138_
*364 _139_
*365 _140_
*366 _141_
*367 _142_
*368 _143_
*369 _144_
*370 _145_
*371 _146_
*372 _147_
*373 _148_
*374 _149_
*375 _150_
*376 _151_
*377 _152_
*378 _153_
*379 _154_
*380 _155_
*381 _156_
*382 _157_
*383 _158_
*384 _159_
*385 _160_
*386 _161_
*387 _162_
*388 _163_
*389 _164_
*390 _165_
*391 _166_
*392 _167_
*393 clkbuf_0_clk
*394 clkbuf_1_0__f_clk
*395 clkbuf_1_1__f_clk
*396 input1
*397 input10
*398 input11
*399 input12
*400 input13
*401 input14
*402 input15
*403 input16
*404 input17
*405 input18
*406 input2
*407 input3
*408 input4
*409 input5
*410 input6
*411 input7
*412 input8
*413 input9
*414 output19
*415 output20
*416 output21
*417 output22
*418 output23
*419 output24
*420 output25
*421 output26

*PORTS
a[0] I
a[1] I
a[2] I
a[3] I
a[4] I
a[5] I
a[6] I
a[7] I
b[0] I
b[1] I
b[2] I
b[3] I
b[4] I
b[5] I
b[6] I
b[7] I
clk I
result[0] O
result[1] O
result[2] O
result[3] O
result[4] O
result[5] O
result[6] O
result[7] O
sel[0] I
sel[1] I

*D_NET *3 0.00142138
*CONN
*P a[0] I
*I *396:A I *D sky130_fd_sc_hd__buf_1
*CAP
1 a[0] 0.000707604
2 *396:A 0
3 *3:13 0.000707604
4 *3:13 result[0] 0
5 *3:13 result[6] 0
6 *3:13 *113:10 6.17437e-06
*RES
1 a[0] *3:13 29.6864 
2 *3:13 *396:A 23 
*END

*D_NET *4 0.000714704
*CONN
*P a[1] I
*I *406:A I *D sky130_fd_sc_hd__buf_1
*CAP
1 a[1] 0.000307006
2 *406:A 0.000307006
3 *406:A result[2] 4.86377e-05
4 *406:A *397:A 5.20552e-05
*RES
1 a[1] *406:A 49.4136 
*END

*D_NET *5 0.00076581
*CONN
*P a[2] I
*I *407:A I *D sky130_fd_sc_hd__buf_1
*CAP
1 a[2] 0.000322528
2 *407:A 0.000322528
3 *407:A result[5] 5.20552e-05
4 *407:A *19:11 6.86997e-05
*RES
1 a[2] *407:A 48.8397 
*END

*D_NET *6 0.000902566
*CONN
*P a[3] I
*I *408:A I *D sky130_fd_sc_hd__buf_1
*CAP
1 a[3] 0.000448596
2 *408:A 0.000448596
3 *408:A result[4] 0
4 *408:A *133:10 5.37348e-06
*RES
1 a[3] *408:A 47.3214 
*END

*D_NET *7 0.000912675
*CONN
*P a[4] I
*I *409:A I *D sky130_fd_sc_hd__dlymetal6s2s_1
*CAP
1 a[4] 0.000456337
2 *409:A 0.000456337
3 *409:A *399:A 0
*RES
1 a[4] *409:A 47.3214 
*END

*D_NET *8 0.000544
*CONN
*P a[5] I
*I *410:A I *D sky130_fd_sc_hd__buf_1
*CAP
1 a[5] 0.000217619
2 *410:A 0.000217619
3 *410:A *16:11 8.75169e-05
4 *410:A *17:19 0
5 *410:A *28:17 2.12457e-05
*RES
1 a[5] *410:A 47.7832 
*END

*D_NET *9 0.000672315
*CONN
*P a[6] I
*I *411:A I *D sky130_fd_sc_hd__buf_1
*CAP
1 a[6] 0.000311579
2 *411:A 0
3 *9:17 0.000311579
4 *9:17 *405:A 2.79122e-05
5 *9:17 *17:19 2.12457e-05
6 *9:17 *32:10 0
*RES
1 a[6] *9:17 27.5105 
2 *9:17 *411:A 23 
*END

*D_NET *10 0.000651368
*CONN
*P a[7] I
*I *412:A I *D sky130_fd_sc_hd__clkbuf_1
*CAP
1 a[7] 0.000301105
2 *412:A 0
3 *10:17 0.000301105
4 *10:17 *403:A 2.79122e-05
5 *10:17 *405:A 2.12457e-05
*RES
1 a[7] *10:17 27.1584 
2 *10:17 *412:A 23 
*END

*D_NET *11 0.00111306
*CONN
*P b[0] I
*I *413:A I *D sky130_fd_sc_hd__dlymetal6s2s_1
*CAP
1 b[0] 0.000499086
2 *413:A 0.000499086
3 *413:A result[1] 5.20552e-05
4 *413:A *397:A 6.28333e-05
*RES
1 b[0] *413:A 47.68 
*END

*D_NET *12 0.000612758
*CONN
*P b[1] I
*I *397:A I *D sky130_fd_sc_hd__dlymetal6s2s_1
*CAP
1 b[1] 0.000248935
2 *397:A 0.000248935
3 *397:A result[2] 0
4 *406:A *397:A 5.20552e-05
5 *413:A *397:A 6.28333e-05
*RES
1 b[1] *397:A 47.7832 
*END

*D_NET *13 0.000921311
*CONN
*P b[2] I
*I *398:A I *D sky130_fd_sc_hd__buf_1
*CAP
1 b[2] 0.000337181
2 *398:A 0
3 *13:13 0.000337181
4 *13:13 result[2] 6.23473e-05
5 *13:13 result[5] 4.49552e-05
6 *13:13 *126:10 0.000139647
*RES
1 b[2] *13:13 27.8222 
2 *13:13 *398:A 23 
*END

*D_NET *14 0.00124019
*CONN
*P b[3] I
*I *399:A I *D sky130_fd_sc_hd__dlymetal6s2s_1
*CAP
1 b[3] 0.000548266
2 *399:A 0.000548266
3 *399:A *116:10 0.000143655
4 *409:A *399:A 0
*RES
1 b[3] *399:A 49.7036 
*END

*D_NET *15 0.000773667
*CONN
*P b[4] I
*I *400:A I *D sky130_fd_sc_hd__clkbuf_2
*CAP
1 b[4] 0.00037121
2 *400:A 0
3 *15:17 0.00037121
4 *15:17 *16:11 3.12475e-05
5 *15:17 *117:8 0
6 *15:17 *117:10 0
*RES
1 b[4] *15:17 28.3391 
2 *15:17 *400:A 23 
*END

*D_NET *16 0.00141292
*CONN
*P b[5] I
*I *401:A I *D sky130_fd_sc_hd__buf_1
*CAP
1 b[5] 0.00043463
2 *401:A 0
3 *16:11 0.00043463
4 *16:11 *354:C1 2.79653e-05
5 *16:11 *364:A3 7.1699e-05
6 *16:11 *89:10 0.000141038
7 *16:11 *117:54 0.000152328
8 *16:11 *118:8 3.18672e-05
9 *410:A *16:11 8.75169e-05
10 *15:17 *16:11 3.12475e-05
*RES
1 b[5] *16:11 28.5623 
2 *16:11 *401:A 23 
*END

*D_NET *17 0.00149497
*CONN
*P b[6] I
*I *402:A I *D sky130_fd_sc_hd__buf_1
*CAP
1 b[6] 0.000493843
2 *402:A 0
3 *17:19 0.000493843
4 *17:19 *365:A 2.83509e-05
5 *17:19 *365:B 0.000157488
6 *17:19 *405:A 0
7 *17:19 *28:17 2.79122e-05
8 *17:19 *32:10 0.000126901
9 *17:19 *90:6 9.86609e-05
10 *17:19 *119:8 4.67247e-05
11 *410:A *17:19 0
12 *9:17 *17:19 2.12457e-05
*RES
1 b[6] *17:19 29.2873 
2 *17:19 *402:A 23 
*END

*D_NET *18 0.000701981
*CONN
*P b[7] I
*I *403:A I *D sky130_fd_sc_hd__clkbuf_1
*CAP
1 b[7] 0.000320035
2 *403:A 0.000320035
3 *403:A *405:A 0
4 *403:A *31:10 3.39994e-05
5 *10:17 *403:A 2.79122e-05
*RES
1 b[7] *403:A 49.1918 
*END

*D_NET *19 0.00428697
*CONN
*P clk I
*I *393:A I *D sky130_fd_sc_hd__clkbuf_16
*CAP
1 clk 0.00162258
2 *393:A 0
3 *19:11 0.00162258
4 *19:11 result[3] 6.65806e-05
5 *19:11 *331:A2 0
6 *19:11 *339:B 0.000194198
7 *19:11 *52:10 0
8 *19:11 *54:10 0.000163256
9 *19:11 *60:10 0
10 *19:11 *62:10 0
11 *19:11 *111:53 0.000167657
12 *19:11 *115:10 4.23714e-05
13 *19:11 *115:16 7.20234e-05
14 *19:11 *122:66 2.14599e-05
15 *19:11 *132:34 0.000245574
16 *407:A *19:11 6.86997e-05
*RES
1 clk *19:11 38.6538 
2 *19:11 *393:A 23 
*END

*D_NET *20 0.00127946
*CONN
*P result[0] O
*I *414:X O *D sky130_fd_sc_hd__clkbuf_4
*CAP
1 result[0] 0.000498379
2 *414:X 0.000134649
3 *20:8 0.000633028
4 *20:8 *414:A 1.23293e-05
5 *20:8 *113:10 1.07201e-06
6 *3:13 result[0] 0
*RES
1 *414:X *20:8 39.5743 
2 *20:8 result[0] 10.8129 
*END

*D_NET *21 0.000827402
*CONN
*P result[1] O
*I *415:X O *D sky130_fd_sc_hd__buf_2
*CAP
1 result[1] 0.000387673
2 *415:X 0.000387673
3 *413:A result[1] 5.20552e-05
*RES
1 *415:X result[1] 49.8901 
*END

*D_NET *22 0.000924616
*CONN
*P result[2] O
*I *416:X O *D sky130_fd_sc_hd__buf_2
*CAP
1 result[2] 0.000406816
2 *416:X 0.000406816
3 result[2] *126:10 0
4 *397:A result[2] 0
5 *406:A result[2] 4.86377e-05
6 *13:13 result[2] 6.23473e-05
*RES
1 *416:X result[2] 48.6592 
*END

*D_NET *23 0.000682883
*CONN
*P result[3] O
*I *417:X O *D sky130_fd_sc_hd__buf_2
*CAP
1 result[3] 0.000308151
2 *417:X 0.000308151
3 *19:11 result[3] 6.65806e-05
*RES
1 *417:X result[3] 47.5169 
*END

*D_NET *24 0.00101678
*CONN
*P result[4] O
*I *418:X O *D sky130_fd_sc_hd__buf_2
*CAP
1 result[4] 0.00049372
2 *418:X 0.00049372
3 result[4] *418:A 2.93431e-05
4 *408:A result[4] 0
*RES
1 *418:X result[4] 47.57 
*END

*D_NET *25 0.000659486
*CONN
*P result[5] O
*I *419:X O *D sky130_fd_sc_hd__buf_2
*CAP
1 result[5] 0.000281238
2 *419:X 0.000281238
3 *407:A result[5] 5.20552e-05
4 *13:13 result[5] 4.49552e-05
*RES
1 *419:X result[5] 48.4815 
*END

*D_NET *26 0.00160707
*CONN
*P result[6] O
*I *420:X O *D sky130_fd_sc_hd__clkbuf_4
*CAP
1 result[6] 0.000497839
2 *420:X 0.000265785
3 *26:8 0.000763624
4 result[6] result[7] 0
5 *26:8 *420:A 7.98211e-05
6 *3:13 result[6] 0
*RES
1 *420:X *26:8 41.9564 
2 *26:8 result[6] 10.8129 
*END

*D_NET *27 0.00131745
*CONN
*P result[7] O
*I *421:X O *D sky130_fd_sc_hd__clkbuf_4
*CAP
1 result[7] 0.000517511
2 *421:X 0.000139356
3 *27:8 0.000656867
4 *27:8 *420:A 3.7122e-06
5 result[6] result[7] 0
*RES
1 *421:X *27:8 40.0507 
2 *27:8 result[7] 11.165 
*END

*D_NET *28 0.000663939
*CONN
*P sel[0] I
*I *404:A I *D sky130_fd_sc_hd__clkbuf_2
*CAP
1 sel[0] 0.000307391
2 *404:A 0
3 *28:17 0.000307391
4 *410:A *28:17 2.12457e-05
5 *17:19 *28:17 2.79122e-05
*RES
1 sel[0] *28:17 27.2827 
2 *28:17 *404:A 23 
*END

*D_NET *29 0.000589477
*CONN
*P sel[1] I
*I *405:A I *D sky130_fd_sc_hd__buf_2
*CAP
1 sel[1] 0.000243554
2 *405:A 0.000243554
3 *405:A *32:10 5.32119e-05
4 *403:A *405:A 0
5 *9:17 *405:A 2.79122e-05
6 *10:17 *405:A 2.12457e-05
7 *17:19 *405:A 0
*RES
1 sel[1] *405:A 48.1354 
*END

*D_NET *30 0.000890162
*CONN
*I *379:A I *D sky130_fd_sc_hd__nor2_1
*I *383:B I *D sky130_fd_sc_hd__nand2_1
*I *378:Y O *D sky130_fd_sc_hd__nor2_1
*CAP
1 *379:A 2.1982e-05
2 *383:B 8.84378e-05
3 *378:Y 0.000149072
4 *30:10 0.000259492
5 *379:A *378:A 2.93335e-05
6 *379:A *31:10 2.93335e-05
7 *383:B *120:14 9.38052e-05
8 *383:B *137:25 8.87281e-05
9 *30:10 *378:A 0.000100069
10 *30:10 *120:14 2.56281e-05
11 *30:10 *137:25 4.2812e-06
*RES
1 *378:Y *30:10 40.2993 
2 *30:10 *383:B 40.61 
3 *30:10 *379:A 38.6214 
*END

*D_NET *31 0.000681086
*CONN
*I *381:A I *D sky130_fd_sc_hd__xnor2_1
*I *379:Y O *D sky130_fd_sc_hd__nor2_1
*CAP
1 *381:A 0
2 *379:Y 0.00027009
3 *31:10 0.00027009
4 *31:10 *378:A 6.58415e-06
5 *31:10 *120:6 3.25066e-05
6 *31:10 *120:14 3.84822e-05
7 *379:A *31:10 2.93335e-05
8 *403:A *31:10 3.39994e-05
*RES
1 *379:Y *31:10 42.4329 
2 *31:10 *381:A 38 
*END

*D_NET *32 0.00165728
*CONN
*I *381:B I *D sky130_fd_sc_hd__xnor2_1
*I *380:X O *D sky130_fd_sc_hd__a21o_1
*CAP
1 *381:B 0
2 *380:X 0
3 *32:10 0.000721701
4 *32:6 0.000721701
5 *32:10 *365:B 3.37594e-05
6 *32:10 *383:A 0
7 *32:10 *122:10 0
8 *405:A *32:10 5.32119e-05
9 *9:17 *32:10 0
10 *17:19 *32:10 0.000126901
*RES
1 *380:X *32:6 38 
2 *32:6 *32:10 28.8786 
3 *32:10 *381:B 23 
*END

*D_NET *33 0.000467531
*CONN
*I *382:B I *D sky130_fd_sc_hd__xnor2_1
*I *381:Y O *D sky130_fd_sc_hd__xnor2_1
*CAP
1 *382:B 0.00018539
2 *381:Y 0.00018539
3 *382:B *383:A 5.3304e-05
4 *382:B *35:8 4.34464e-05
*RES
1 *381:Y *382:B 49.0243 
*END

*D_NET *34 0.00034352
*CONN
*I *384:B1 I *D sky130_fd_sc_hd__o221a_1
*I *382:Y O *D sky130_fd_sc_hd__xnor2_1
*CAP
1 *384:B1 9.24808e-05
2 *382:Y 9.24808e-05
3 *384:B1 *309:A0 3.86731e-05
4 *384:B1 *384:A2 7.74023e-05
5 *384:B1 *35:8 2.896e-05
6 *384:B1 *101:16 1.3523e-05
*RES
1 *382:Y *384:B1 48.5686 
*END

*D_NET *35 0.000831781
*CONN
*I *384:C1 I *D sky130_fd_sc_hd__o221a_1
*I *383:Y O *D sky130_fd_sc_hd__nand2_1
*CAP
1 *384:C1 0
2 *383:Y 0.0002535
3 *35:8 0.0002535
4 *35:8 *309:A0 7.64079e-06
5 *35:8 *383:A 5.58003e-05
6 *35:8 *101:16 0.000188934
7 *382:B *35:8 4.34464e-05
8 *384:B1 *35:8 2.896e-05
*RES
1 *383:Y *35:8 27.93 
2 *35:8 *384:C1 23 
*END

*D_NET *36 0.013702
*CONN
*I *320:A I *D sky130_fd_sc_hd__nand2_1
*I *321:C1 I *D sky130_fd_sc_hd__a211o_1
*I *306:A I *D sky130_fd_sc_hd__or2_1
*I *330:C1 I *D sky130_fd_sc_hd__a211o_1
*I *353:A1 I *D sky130_fd_sc_hd__a21o_1
*I *344:A1 I *D sky130_fd_sc_hd__a21o_1
*I *363:A1 I *D sky130_fd_sc_hd__a21o_1
*I *375:A1 I *D sky130_fd_sc_hd__a21o_1
*I *305:Y O *D sky130_fd_sc_hd__inv_2
*CAP
1 *320:A 0
2 *321:C1 0
3 *306:A 0
4 *330:C1 9.55006e-05
5 *353:A1 0.00052653
6 *344:A1 0
7 *363:A1 0.000503384
8 *375:A1 0.00033352
9 *305:Y 0
10 *36:113 0.000625399
11 *36:96 0.000823002
12 *36:54 0.000621024
13 *36:44 0.00170648
14 *36:38 0.00105587
15 *36:21 0.00114035
16 *36:17 0.000312954
17 *36:15 0.000435336
18 *36:4 0.000493821
19 *330:C1 *325:A 0.000169052
20 *330:C1 *129:10 0.000318493
21 *353:A1 *75:48 0.000142675
22 *353:A1 *111:16 0.000127863
23 *353:A1 *122:53 4.36552e-05
24 *353:A1 *133:14 5.3304e-05
25 *363:A1 *363:A2 1.34914e-05
26 *363:A1 *363:B1 0.000102389
27 *363:A1 *121:70 2.13733e-05
28 *375:A1 *108:10 4.46742e-06
29 *36:15 *121:91 9.79925e-05
30 *36:17 *37:10 2.14404e-05
31 *36:17 *121:91 6.00824e-05
32 *36:21 *121:70 0
33 *36:21 *121:91 4.41821e-06
34 *36:21 *122:81 0.00014216
35 *36:21 *122:94 1.90253e-05
36 *36:38 *324:A1 5.79715e-05
37 *36:38 *43:10 6.48049e-05
38 *36:38 *43:12 6.23835e-05
39 *36:38 *43:14 8.22508e-06
40 *36:38 *53:10 0.000137744
41 *36:38 *110:12 0.00021331
42 *36:38 *138:39 6.48049e-05
43 *36:44 *333:A1 2.71291e-05
44 *36:44 *334:A_N 1.69668e-05
45 *36:44 *337:B 0
46 *36:44 *43:14 0.000179861
47 *36:44 *70:10 0.000187612
48 *36:44 *110:12 0.000577324
49 *36:44 *116:63 0.000105474
50 *36:44 *116:72 2.5415e-05
51 *36:44 *133:10 2.45092e-05
52 *36:44 *133:36 4.44801e-05
53 *36:54 *336:A 0.000178129
54 *36:54 *338:A 8.22284e-05
55 *36:54 *338:B 5.71054e-05
56 *36:54 *341:A 5.10997e-05
57 *36:54 *344:A2 9.0836e-05
58 *36:54 *344:B1 0.000218498
59 *36:54 *133:10 0.000193024
60 *36:96 *37:10 2.35118e-06
61 *36:96 *37:40 1.142e-05
62 *36:96 *121:91 0.0003692
63 *36:96 *122:94 8.16757e-06
64 *36:113 *319:A 1.24376e-05
65 *36:113 *47:21 3.9788e-05
66 *36:113 *50:8 0.00028288
67 *36:113 *114:12 4.07835e-05
68 *36:113 *114:16 1.74129e-05
69 *36:113 *121:91 2.87195e-05
70 *36:113 *121:112 0.000204907
*RES
1 *305:Y *36:4 23 
2 *36:4 *375:A1 26.9564 
3 *36:4 *36:15 17.0507 
4 *36:15 *36:17 1.90571 
5 *36:17 *36:21 20.075 
6 *36:21 *363:A1 29.815 
7 *36:21 *36:38 22.7886 
8 *36:38 *36:44 13.3607 
9 *36:44 *36:54 29.5829 
10 *36:54 *344:A1 23 
11 *36:44 *353:A1 45.2914 
12 *36:38 *330:C1 41.9461 
13 *36:17 *306:A 38 
14 *36:15 *36:96 19.8057 
15 *36:96 *321:C1 23 
16 *36:96 *36:113 40.7921 
17 *36:113 *320:A 23 
*END

*D_NET *37 0.00771348
*CONN
*I *307:B1 I *D sky130_fd_sc_hd__o21a_1
*I *384:A1 I *D sky130_fd_sc_hd__o221a_1
*I *331:A2 I *D sky130_fd_sc_hd__o211a_1
*I *322:A2 I *D sky130_fd_sc_hd__o211a_1
*I *306:X O *D sky130_fd_sc_hd__or2_1
*CAP
1 *307:B1 0
2 *384:A1 0.000512227
3 *331:A2 0.000501461
4 *322:A2 5.65314e-05
5 *306:X 0.000118945
6 *37:65 0.000499682
7 *37:40 0.00143449
8 *37:16 0.00106581
9 *37:10 0.00104934
10 *322:A2 *47:21 0
11 *322:A2 *114:12 1.12863e-05
12 *322:A2 *121:112 1.37712e-05
13 *331:A2 *46:8 3.76854e-05
14 *331:A2 *47:21 2.34077e-05
15 *331:A2 *58:10 1.12863e-05
16 *331:A2 *115:10 0.000129513
17 *331:A2 *115:16 1.14452e-05
18 *331:A2 *121:112 0
19 *384:A1 *309:A0 0.00077203
20 *384:A1 *392:D 0.00017695
21 *37:10 *313:A 2.10502e-05
22 *37:16 *321:A2 2.10121e-05
23 *37:16 *114:16 0.00022672
24 *37:16 *121:91 0.000356727
25 *37:16 *121:112 8.47465e-06
26 *37:40 *38:10 0.000344688
27 *37:40 *110:23 0
28 *37:40 *138:33 0
29 *37:65 *308:A 5.79559e-05
30 *37:65 *309:A0 3.7122e-06
31 *37:65 *40:8 0.000136996
32 *37:65 *110:23 7.50825e-05
33 *19:11 *331:A2 0
34 *36:17 *37:10 2.14404e-05
35 *36:96 *37:10 2.35118e-06
36 *36:96 *37:40 1.142e-05
*RES
1 *306:X *37:10 39.8229 
2 *37:10 *37:16 37.2914 
3 *37:16 *322:A2 38.8493 
4 *37:16 *331:A2 46.6379 
5 *37:10 *37:40 23.9486 
6 *37:40 *384:A1 35.5736 
7 *37:40 *37:65 39.4664 
8 *37:65 *307:B1 23 
*END

*D_NET *38 0.00155364
*CONN
*I *309:A1 I *D sky130_fd_sc_hd__mux2_1
*I *307:X O *D sky130_fd_sc_hd__o21a_1
*CAP
1 *309:A1 0
2 *307:X 0.000295131
3 *38:10 0.000295131
4 *38:10 *308:A 5.25435e-05
5 *38:10 *308:B 3.34129e-05
6 *38:10 *39:10 0.00053273
7 *37:40 *38:10 0.000344688
*RES
1 *307:X *38:10 46.555 
2 *38:10 *309:A1 38 
*END

*D_NET *39 0.00136515
*CONN
*I *309:S I *D sky130_fd_sc_hd__mux2_1
*I *308:Y O *D sky130_fd_sc_hd__nand2_1
*CAP
1 *309:S 0
2 *308:Y 0.000335078
3 *39:10 0.000335078
4 *39:10 *130:10 0.000162263
5 *38:10 *39:10 0.00053273
*RES
1 *308:Y *39:10 45.25 
2 *39:10 *309:S 38 
*END

*D_NET *40 0.0016822
*CONN
*I *310:A I *D sky130_fd_sc_hd__clkbuf_1
*I *309:X O *D sky130_fd_sc_hd__mux2_1
*CAP
1 *310:A 0.000369412
2 *309:X 9.67424e-05
3 *40:8 0.000466155
4 *310:A *110:23 5.5792e-05
5 *310:A *112:8 0.000103961
6 *310:A *138:10 0.000453138
7 *37:65 *40:8 0.000136996
*RES
1 *309:X *40:8 40.2579 
2 *40:8 *310:A 46.2443 
*END

*D_NET *41 0.00191341
*CONN
*I *319:A I *D sky130_fd_sc_hd__xnor2_1
*I *323:A1 I *D sky130_fd_sc_hd__a21o_1
*I *311:X O *D sky130_fd_sc_hd__or2b_1
*CAP
1 *319:A 0.000162144
2 *323:A1 4.31292e-05
3 *311:X 0.00030825
4 *41:10 0.000513524
5 *319:A *320:B 5.58003e-05
6 *319:A *50:8 2.33782e-05
7 *319:A *124:10 0.000275241
8 *323:A1 *47:21 4.11274e-05
9 *323:A1 *124:10 8.78864e-05
10 *41:10 *318:A_N 5.3327e-05
11 *41:10 *47:21 0.000190869
12 *41:10 *103:10 8.3843e-05
13 *41:10 *114:8 5.10686e-05
14 *41:10 *124:10 1.13812e-05
15 *36:113 *319:A 1.24376e-05
*RES
1 *311:X *41:10 43.4893 
2 *41:10 *323:A1 39.2014 
3 *41:10 *319:A 42.4743 
*END

*D_NET *42 0.000496976
*CONN
*I *313:A I *D sky130_fd_sc_hd__buf_2
*I *312:X O *D sky130_fd_sc_hd__or2b_1
*CAP
1 *313:A 0.000146074
2 *312:X 0.000146074
3 *313:A *312:A 6.17437e-06
4 *313:A *121:81 5.58003e-05
5 *313:A *122:81 0.000121803
6 *37:10 *313:A 2.10502e-05
*RES
1 *312:X *313:A 49.5007 
*END

*D_NET *43 0.0122724
*CONN
*I *315:A2 I *D sky130_fd_sc_hd__a21oi_1
*I *314:C I *D sky130_fd_sc_hd__and3_1
*I *324:B1 I *D sky130_fd_sc_hd__o21a_1
*I *354:A2 I *D sky130_fd_sc_hd__a211oi_1
*I *345:B1 I *D sky130_fd_sc_hd__o21a_1
*I *355:B1 I *D sky130_fd_sc_hd__o311a_1
*I *364:B1 I *D sky130_fd_sc_hd__o31a_1
*I *380:A2 I *D sky130_fd_sc_hd__a21o_1
*I *334:B I *D sky130_fd_sc_hd__nand3b_1
*I *333:A1 I *D sky130_fd_sc_hd__a21bo_1
*I *313:X O *D sky130_fd_sc_hd__buf_2
*CAP
1 *315:A2 0.000166932
2 *314:C 0.000104264
3 *324:B1 0
4 *354:A2 0.000141322
5 *345:B1 0
6 *355:B1 0
7 *364:B1 0.000126683
8 *380:A2 0
9 *334:B 0.000287
10 *333:A1 7.25841e-05
11 *313:X 0
12 *43:103 0.000105464
13 *43:95 0.000461034
14 *43:80 0.000244789
15 *43:65 0.000369241
16 *43:56 0.000346262
17 *43:44 0.00191028
18 *43:14 0.000632077
19 *43:12 0.00170619
20 *43:10 0.00015179
21 *43:8 0.000283673
22 *43:6 0.000276246
23 *314:C *314:A 0.000126101
24 *315:A2 *315:A1 9.65021e-05
25 *315:A2 *138:35 4.53683e-05
26 *333:A1 *334:A_N 0.00017466
27 *333:A1 *60:20 0.000139346
28 *333:A1 *122:53 1.02387e-05
29 *334:B *334:A_N 0.000371888
30 *334:B *60:16 2.84667e-05
31 *334:B *62:10 2.45549e-06
32 *354:A2 *354:A1 5.50106e-05
33 *354:A2 *354:B1 2.18506e-05
34 *354:A2 *354:C1 0.000142636
35 *354:A2 *80:6 5.79559e-05
36 *364:B1 *355:A2 5.79559e-05
37 *364:B1 *355:C1 5.79559e-05
38 *43:8 *114:53 6.48219e-05
39 *43:8 *122:81 1.71301e-05
40 *43:8 *138:35 8.80275e-05
41 *43:8 *138:39 1.58805e-05
42 *43:10 *114:53 6.07826e-05
43 *43:10 *138:39 3.3746e-05
44 *43:12 *53:10 8.57577e-05
45 *43:12 *114:53 2.96154e-05
46 *43:12 *122:81 2.462e-05
47 *43:14 *53:10 6.12392e-05
48 *43:14 *122:47 2.95729e-05
49 *43:14 *122:53 6.95207e-05
50 *43:14 *122:81 2.86161e-05
51 *43:44 *325:A 1.24376e-05
52 *43:44 *111:35 7.97969e-05
53 *43:44 *129:10 4.00255e-05
54 *43:44 *135:17 0.00030317
55 *43:44 *135:28 9.64943e-05
56 *43:56 *365:B 3.9131e-05
57 *43:56 *373:A1 4.36619e-05
58 *43:56 *373:A2 3.85196e-05
59 *43:56 *373:B1 0.000187335
60 *43:56 *89:10 0.000383972
61 *43:56 *119:23 3.6921e-05
62 *43:56 *121:10 0.000138763
63 *43:56 *122:16 0
64 *43:56 *135:8 0.000143423
65 *43:56 *135:17 0.000100061
66 *43:65 *80:14 5.43973e-05
67 *43:80 *355:A2 5.58003e-05
68 *43:80 *355:A3 6.17437e-06
69 *43:95 *345:A2 3.47781e-05
70 *43:95 *355:A2 5.5792e-05
71 *43:95 *355:A3 0.000239276
72 *43:95 *60:20 5.3304e-05
73 *43:95 *80:6 1.56446e-05
74 *43:95 *80:14 0.00024635
75 *43:95 *116:31 2.80091e-05
76 *43:103 *345:A2 6.48263e-05
77 *43:103 *121:12 4.83778e-05
78 *36:38 *43:10 6.48049e-05
79 *36:38 *43:12 6.23835e-05
80 *36:38 *43:14 8.22508e-06
81 *36:44 *333:A1 2.71291e-05
82 *36:44 *43:14 0.000179861
*RES
1 *313:X *43:6 38 
2 *43:6 *43:8 2.96214 
3 *43:8 *43:10 1.90571 
4 *43:10 *43:12 2.25786 
5 *43:12 *43:14 6.13143 
6 *43:14 *333:A1 40.4236 
7 *43:14 *334:B 43.7586 
8 *43:12 *43:44 34.8443 
9 *43:44 *43:56 39.5493 
10 *43:56 *380:A2 23 
11 *43:44 *43:65 18.3143 
12 *43:65 *364:B1 39.7193 
13 *43:65 *43:80 15.6214 
14 *43:80 *355:B1 23 
15 *43:80 *43:95 35.7379 
16 *43:95 *43:103 32.5271 
17 *43:103 *345:B1 23 
18 *43:95 *354:A2 26.5007 
19 *43:10 *324:B1 38 
20 *43:8 *314:C 39.4396 
21 *43:6 *315:A2 41.2521 
*END

*D_NET *44 0.00193435
*CONN
*I *316:A1 I *D sky130_fd_sc_hd__o21a_1
*I *317:B I *D sky130_fd_sc_hd__or3_1
*I *314:X O *D sky130_fd_sc_hd__and3_1
*CAP
1 *316:A1 2.94733e-05
2 *317:B 0.000288633
3 *314:X 0.000426571
4 *44:10 0.000744676
5 *316:A1 *114:39 6.07397e-05
6 *317:B *317:C 0.000147144
7 *317:B *45:6 5.3304e-05
8 *317:B *124:14 5.58003e-05
9 *317:B *124:23 9.77922e-06
10 *44:10 *314:A 3.53051e-05
11 *44:10 *114:39 8.29264e-05
*RES
1 *314:X *44:10 43.6343 
2 *44:10 *317:B 43.0957 
3 *44:10 *316:A1 38.8493 
*END

*D_NET *45 0.000707868
*CONN
*I *317:C I *D sky130_fd_sc_hd__or3_1
*I *316:A2 I *D sky130_fd_sc_hd__o21a_1
*I *315:Y O *D sky130_fd_sc_hd__a21oi_1
*CAP
1 *317:C 0.000104807
2 *316:A2 0
3 *315:Y 5.55718e-05
4 *45:6 0.000160379
5 *317:C *316:B1 5.31974e-06
6 *317:C *124:23 0.000131701
7 *317:C *124:40 2.56967e-05
8 *45:6 *315:B1 1.83327e-05
9 *45:6 *124:40 5.61255e-06
10 *317:B *317:C 0.000147144
11 *317:B *45:6 5.3304e-05
*RES
1 *315:Y *45:6 24.0979 
2 *45:6 *316:A2 23 
3 *45:6 *317:C 26.8114 
*END

*D_NET *46 0.00210157
*CONN
*I *318:A_N I *D sky130_fd_sc_hd__and2b_1
*I *323:B1 I *D sky130_fd_sc_hd__a21o_1
*I *316:X O *D sky130_fd_sc_hd__o21a_1
*CAP
1 *318:A_N 0.000270623
2 *323:B1 0
3 *316:X 6.32276e-05
4 *46:16 0.000764477
5 *46:8 0.000557082
6 *318:A_N *48:10 0
7 *318:A_N *103:10 0.000138523
8 *318:A_N *124:10 0.000129647
9 *46:8 *121:112 2.14404e-05
10 *46:16 *115:10 2.87959e-05
11 *46:16 *124:10 3.67392e-05
12 *331:A2 *46:8 3.76854e-05
13 *41:10 *318:A_N 5.3327e-05
*RES
1 *316:X *46:8 39.2014 
2 *46:8 *46:16 36.6907 
3 *46:16 *323:B1 38 
4 *46:16 *318:A_N 43.4271 
*END

*D_NET *47 0.00138574
*CONN
*I *318:B I *D sky130_fd_sc_hd__and2b_1
*I *323:A2 I *D sky130_fd_sc_hd__a21o_1
*I *317:X O *D sky130_fd_sc_hd__or3_1
*CAP
1 *318:B 0
2 *323:A2 5.43653e-05
3 *317:X 0
4 *47:21 0.000368287
5 *47:4 0.000422653
6 *323:A2 *124:14 5.82853e-05
7 *323:A2 *124:23 1.1258e-05
8 *323:A2 *124:40 0
9 *47:21 *103:10 6.7177e-06
10 *47:21 *114:8 0.000168985
11 *322:A2 *47:21 0
12 *323:A1 *47:21 4.11274e-05
13 *331:A2 *47:21 2.34077e-05
14 *36:113 *47:21 3.9788e-05
15 *41:10 *47:21 0.000190869
*RES
1 *317:X *47:4 23 
2 *47:4 *323:A2 24.4707 
3 *47:4 *47:21 37.8507 
4 *47:21 *318:B 23 
*END

*D_NET *48 0.00032535
*CONN
*I *319:B I *D sky130_fd_sc_hd__xnor2_1
*I *318:X O *D sky130_fd_sc_hd__and2b_1
*CAP
1 *319:B 0
2 *318:X 0.000153885
3 *48:10 0.000153885
4 *48:10 *114:8 1.75792e-05
5 *318:A_N *48:10 0
*RES
1 *318:X *48:10 40.5271 
2 *48:10 *319:B 38 
*END

*D_NET *49 0.00018566
*CONN
*I *320:B I *D sky130_fd_sc_hd__nand2_1
*I *319:Y O *D sky130_fd_sc_hd__xnor2_1
*CAP
1 *320:B 6.49299e-05
2 *319:Y 6.49299e-05
3 *319:A *320:B 5.58003e-05
*RES
1 *319:Y *320:B 47.4707 
*END

*D_NET *50 0.000821917
*CONN
*I *322:B1 I *D sky130_fd_sc_hd__o211a_1
*I *320:Y O *D sky130_fd_sc_hd__nand2_1
*CAP
1 *322:B1 0
2 *320:Y 0.000179724
3 *50:8 0.000179724
4 *50:8 *103:10 9.82287e-05
5 *50:8 *114:16 5.79821e-05
6 *319:A *50:8 2.33782e-05
7 *36:113 *50:8 0.00028288
*RES
1 *320:Y *50:8 27.93 
2 *50:8 *322:B1 23 
*END

*D_NET *51 0.000121876
*CONN
*I *322:C1 I *D sky130_fd_sc_hd__o211a_1
*I *321:X O *D sky130_fd_sc_hd__a211o_1
*CAP
1 *322:C1 1.82709e-05
2 *321:X 1.82709e-05
3 *322:C1 *114:16 5.5792e-05
4 *322:C1 *121:112 2.95423e-05
*RES
1 *321:X *322:C1 46.6214 
*END

*D_NET *52 0.00364393
*CONN
*I *327:A I *D sky130_fd_sc_hd__nand2_1
*I *328:A I *D sky130_fd_sc_hd__or2_1
*I *340:A1 I *D sky130_fd_sc_hd__a21oi_1
*I *348:A1 I *D sky130_fd_sc_hd__a211o_1
*I *323:X O *D sky130_fd_sc_hd__a21o_1
*CAP
1 *327:A 9.02208e-05
2 *328:A 0
3 *340:A1 0.000239601
4 *348:A1 0
5 *323:X 0.000613964
6 *52:42 0.000123655
7 *52:20 0.000754617
8 *52:10 0.00116241
9 *327:A *328:B 4.89199e-05
10 *327:A *132:10 2.69729e-05
11 *340:A1 *340:A2 2.31687e-05
12 *340:A1 *348:A2 0.00022652
13 *340:A1 *67:10 1.2818e-05
14 *52:10 *57:8 0.000134767
15 *52:10 *111:53 0
16 *52:20 *55:12 0
17 *52:20 *67:10 2.75733e-06
18 *52:20 *111:53 0.000127903
19 *52:42 *132:10 5.56356e-05
20 *19:11 *52:10 0
*RES
1 *323:X *52:10 49.1029 
2 *52:10 *52:20 9.19714 
3 *52:20 *348:A1 38 
4 *52:20 *340:A1 41.8529 
5 *52:10 *52:42 15.6214 
6 *52:42 *328:A 23 
7 *52:42 *327:A 25.0714 
*END

*D_NET *53 0.000560754
*CONN
*I *325:B I *D sky130_fd_sc_hd__xnor2_1
*I *324:X O *D sky130_fd_sc_hd__o21a_1
*CAP
1 *325:B 0
2 *324:X 0.000111354
3 *53:10 0.000111354
4 *53:10 *114:45 5.3304e-05
5 *36:38 *53:10 0.000137744
6 *43:12 *53:10 8.57577e-05
7 *43:14 *53:10 6.12392e-05
*RES
1 *324:X *53:10 40.5271 
2 *53:10 *325:B 38 
*END

*D_NET *54 0.00281014
*CONN
*I *326:B I *D sky130_fd_sc_hd__xor2_1
*I *339:B I *D sky130_fd_sc_hd__and2_1
*I *325:Y O *D sky130_fd_sc_hd__xnor2_1
*CAP
1 *326:B 3.80122e-05
2 *339:B 0.000269043
3 *325:Y 0.000540384
4 *54:10 0.00084744
5 *326:B *132:23 5.3304e-05
6 *339:B *60:10 0
7 *54:10 *122:66 8.36198e-05
8 *54:10 *129:10 0.000620879
9 *19:11 *339:B 0.000194198
10 *19:11 *54:10 0.000163256
*RES
1 *325:Y *54:10 47.0729 
2 *54:10 *339:B 43.1579 
3 *54:10 *326:B 38.6214 
*END

*D_NET *55 0.00286788
*CONN
*I *327:B I *D sky130_fd_sc_hd__nand2_1
*I *328:B I *D sky130_fd_sc_hd__or2_1
*I *340:A2 I *D sky130_fd_sc_hd__a21oi_1
*I *348:A2 I *D sky130_fd_sc_hd__a211o_1
*I *326:X O *D sky130_fd_sc_hd__xor2_1
*CAP
1 *327:B 0
2 *328:B 7.16361e-05
3 *340:A2 4.93307e-05
4 *348:A2 0.000164686
5 *326:X 0.000279926
6 *55:36 0.000156621
7 *55:12 0.000505009
8 *55:8 0.000655903
9 *328:B *132:10 0.000163532
10 *348:A2 *340:B1 5.50106e-05
11 *348:A2 *348:B1 0.000128521
12 *348:A2 *68:8 1.10658e-05
13 *55:8 *132:10 0.000275317
14 *55:12 *67:10 5.27182e-05
15 *327:A *328:B 4.89199e-05
16 *340:A1 *340:A2 2.31687e-05
17 *340:A1 *348:A2 0.00022652
18 *52:20 *55:12 0
*RES
1 *326:X *55:8 41.9564 
2 *55:8 *55:12 19.7229 
3 *55:12 *348:A2 28.0957 
4 *55:12 *340:A2 24.0979 
5 *55:8 *55:36 16.2014 
6 *55:36 *328:B 25.5686 
7 *55:36 *327:B 23 
*END

*D_NET *56 0.0011566
*CONN
*I *329:A1 I *D sky130_fd_sc_hd__a21o_1
*I *327:Y O *D sky130_fd_sc_hd__nand2_1
*CAP
1 *329:A1 0.00029822
2 *327:Y 7.95456e-05
3 *56:8 0.000377765
4 *329:A1 *129:10 0.000401067
*RES
1 *327:Y *56:8 39.2014 
2 *56:8 *329:A1 42.4329 
*END

*D_NET *57 0.000607141
*CONN
*I *329:A2 I *D sky130_fd_sc_hd__a21o_1
*I *328:X O *D sky130_fd_sc_hd__or2_1
*CAP
1 *329:A2 6.49632e-05
2 *328:X 8.34547e-05
3 *57:8 0.000148418
4 *329:A2 *129:10 0.000142678
5 *57:8 *111:53 3.28604e-05
6 *52:10 *57:8 0.000134767
*RES
1 *328:X *57:8 39.9057 
2 *57:8 *329:A2 39.5743 
*END

*D_NET *58 0.000624979
*CONN
*I *331:B1 I *D sky130_fd_sc_hd__o211a_1
*I *329:X O *D sky130_fd_sc_hd__a21o_1
*CAP
1 *331:B1 0
2 *329:X 0.000189112
3 *58:10 0.000189112
4 *58:10 *329:B1 3.7122e-06
5 *58:10 *59:10 0.000138733
6 *58:10 *115:16 8.63924e-05
7 *58:10 *129:10 6.63159e-06
8 *331:A2 *58:10 1.12863e-05
*RES
1 *329:X *58:10 41.8321 
2 *58:10 *331:B1 38 
*END

*D_NET *59 0.000617866
*CONN
*I *331:C1 I *D sky130_fd_sc_hd__o211a_1
*I *330:X O *D sky130_fd_sc_hd__a211o_1
*CAP
1 *331:C1 0
2 *330:X 0.000137381
3 *59:10 0.000137381
4 *59:10 *325:A 5.79559e-05
5 *59:10 *115:16 4.95908e-05
6 *59:10 *121:112 9.6826e-05
7 *58:10 *59:10 0.000138733
*RES
1 *330:X *59:10 42.1843 
2 *59:10 *331:C1 38 
*END

*D_NET *60 0.00600992
*CONN
*I *334:C I *D sky130_fd_sc_hd__nand3b_1
*I *333:A2 I *D sky130_fd_sc_hd__a21bo_1
*I *355:A3 I *D sky130_fd_sc_hd__o311a_1
*I *345:A2 I *D sky130_fd_sc_hd__o21a_1
*I *332:X O *D sky130_fd_sc_hd__or3_2
*CAP
1 *334:C 0
2 *333:A2 1.89728e-05
3 *355:A3 0.000170046
4 *345:A2 0.000101258
5 *332:X 0.000526012
6 *60:20 0.00152122
7 *60:16 0.00136565
8 *60:12 9.67605e-05
9 *60:10 0.000526012
10 *345:A2 *116:31 6.57345e-05
11 *345:A2 *121:12 0
12 *355:A3 *121:12 0
13 *60:10 *332:A 5.68958e-05
14 *60:10 *332:C 3.7122e-06
15 *60:10 *114:39 3.43144e-05
16 *60:10 *114:45 0.000143156
17 *60:10 *121:112 0.000165809
18 *60:10 *132:23 0.000186916
19 *60:16 *334:A_N 0.000117512
20 *60:16 *61:10 0.000100061
21 *60:20 *334:A_N 4.50193e-05
22 *60:20 *357:B1 7.72342e-05
23 *60:20 *80:6 9.65021e-05
24 *60:20 *81:12 9.03964e-06
25 *60:20 *83:27 1.59071e-05
26 *333:A1 *60:20 0.000139346
27 *334:B *60:16 2.84667e-05
28 *339:B *60:10 0
29 *19:11 *60:10 0
30 *43:80 *355:A3 6.17437e-06
31 *43:95 *345:A2 3.47781e-05
32 *43:95 *355:A3 0.000239276
33 *43:95 *60:20 5.3304e-05
34 *43:103 *345:A2 6.48263e-05
*RES
1 *332:X *60:10 48.295 
2 *60:10 *60:12 15 
3 *60:12 *60:16 3.02429 
4 *60:16 *60:20 35.6314 
5 *60:20 *345:A2 40.2579 
6 *60:20 *355:A3 41.5836 
7 *60:16 *333:A2 23.4971 
8 *60:12 *334:C 23 
*END

*D_NET *61 0.00189115
*CONN
*I *335:A1 I *D sky130_fd_sc_hd__a21o_1
*I *337:B I *D sky130_fd_sc_hd__and3_1
*I *333:X O *D sky130_fd_sc_hd__a21bo_1
*CAP
1 *335:A1 0.000243544
2 *337:B 0.000301552
3 *333:X 0.000139123
4 *61:10 0.000684219
5 *335:A1 *335:A2 0.000117719
6 *335:A1 *75:18 1.47709e-05
7 *335:A1 *110:12 5.56356e-05
8 *337:B *337:C 7.29497e-05
9 *337:B *62:10 2.39018e-05
10 *337:B *111:16 0.000102204
11 *61:10 *62:10 3.54728e-05
12 *36:44 *337:B 0
13 *60:16 *61:10 0.000100061
*RES
1 *333:X *61:10 40.2993 
2 *61:10 *337:B 43.0129 
3 *61:10 *335:A1 41.48 
*END

*D_NET *62 0.00193062
*CONN
*I *335:A2 I *D sky130_fd_sc_hd__a21o_1
*I *337:C I *D sky130_fd_sc_hd__and3_1
*I *334:Y O *D sky130_fd_sc_hd__nand3b_1
*CAP
1 *335:A2 0.000108952
2 *337:C 0.000305663
3 *334:Y 0.00019674
4 *62:10 0.000611355
5 *335:A2 *75:18 0.000361027
6 *335:A2 *110:12 5.79559e-05
7 *337:C *338:B 2.78736e-06
8 *337:C *111:16 3.36371e-05
9 *334:B *62:10 2.45549e-06
10 *335:A1 *335:A2 0.000117719
11 *337:B *337:C 7.29497e-05
12 *337:B *62:10 2.39018e-05
13 *19:11 *62:10 0
14 *61:10 *62:10 3.54728e-05
*RES
1 *334:Y *62:10 41.0036 
2 *62:10 *337:C 43.1371 
3 *62:10 *335:A2 41.9564 
*END

*D_NET *63 0.00462233
*CONN
*I *336:A I *D sky130_fd_sc_hd__inv_2
*I *359:A1 I *D sky130_fd_sc_hd__a32o_1
*I *349:A I *D sky130_fd_sc_hd__nand2_1
*I *370:A1 I *D sky130_fd_sc_hd__a31oi_1
*I *335:X O *D sky130_fd_sc_hd__a21o_1
*CAP
1 *336:A 0.000207927
2 *359:A1 0
3 *349:A 9.63389e-05
4 *370:A1 0
5 *335:X 0.000230559
6 *63:36 0.000325755
7 *63:28 0.000816685
8 *63:12 0.000795195
9 *63:10 0.000230559
10 *349:A *370:A3 6.92498e-05
11 *349:A *116:40 0.000181963
12 *63:10 *70:10 5.3304e-05
13 *63:10 *122:53 0.000163256
14 *63:10 *133:10 0.000165394
15 *63:10 *133:36 0.000178512
16 *63:28 *389:CLK 5.8118e-05
17 *63:28 *389:D 0.000151331
18 *63:28 *74:12 0.0001366
19 *63:28 *75:48 5.47983e-06
20 *63:28 *76:10 1.39826e-05
21 *63:28 *77:8 2.04854e-05
22 *63:28 *79:10 8.06804e-06
23 *63:28 *121:22 0.000228758
24 *63:36 *359:B1 7.75593e-05
25 *63:36 *370:A2 3.4474e-05
26 *63:36 *76:10 8.49722e-05
27 *63:36 *79:10 1.82958e-05
28 *63:36 *94:8 6.57673e-05
29 *63:36 *116:10 2.56091e-05
30 *36:54 *336:A 0.000178129
*RES
1 *335:X *63:10 43.3443 
2 *63:10 *63:12 15 
3 *63:12 *63:28 42.7393 
4 *63:28 *63:36 34.8886 
5 *63:36 *370:A1 23 
6 *63:36 *349:A 26.4696 
7 *63:28 *359:A1 23 
8 *63:12 *336:A 27.4329 
*END

*D_NET *64 0.000213886
*CONN
*I *338:A I *D sky130_fd_sc_hd__nor2_1
*I *336:Y O *D sky130_fd_sc_hd__inv_2
*CAP
1 *338:A 3.71158e-05
2 *336:Y 3.71158e-05
3 *338:A *344:B1 5.74259e-05
4 *36:54 *338:A 8.22284e-05
*RES
1 *336:Y *338:A 47.5743 
*END

*D_NET *65 0.00256919
*CONN
*I *348:B1 I *D sky130_fd_sc_hd__a211o_1
*I *338:B I *D sky130_fd_sc_hd__nor2_1
*I *337:X O *D sky130_fd_sc_hd__and3_1
*CAP
1 *348:B1 0.000267001
2 *338:B 0.000227934
3 *337:X 0
4 *65:6 0.000494935
5 *338:B *341:A 0.000100061
6 *338:B *341:B 8.93709e-05
7 *338:B *111:12 6.38433e-05
8 *348:B1 *341:B 8.16757e-06
9 *348:B1 *68:8 0.000542851
10 *348:B1 *75:18 0.000454153
11 *348:B1 *111:12 0.000132464
12 *337:C *338:B 2.78736e-06
13 *348:A2 *348:B1 0.000128521
14 *36:54 *338:B 5.71054e-05
*RES
1 *337:X *65:6 38 
2 *65:6 *338:B 43.5307 
3 *65:6 *348:B1 47.6943 
*END

*D_NET *66 0.000451551
*CONN
*I *341:A I *D sky130_fd_sc_hd__xnor2_1
*I *338:Y O *D sky130_fd_sc_hd__nor2_1
*CAP
1 *341:A 5.62673e-05
2 *338:Y 5.62673e-05
3 *341:A *344:B1 0.000187856
4 *338:B *341:A 0.000100061
5 *36:54 *341:A 5.10997e-05
*RES
1 *338:Y *341:A 48.5479 
*END

*D_NET *67 0.000925158
*CONN
*I *340:B1 I *D sky130_fd_sc_hd__a21oi_1
*I *348:C1 I *D sky130_fd_sc_hd__a211o_1
*I *339:X O *D sky130_fd_sc_hd__and2_1
*CAP
1 *340:B1 1.30872e-05
2 *348:C1 0
3 *339:X 0.000371633
4 *67:12 1.30872e-05
5 *67:10 0.000371633
6 *340:B1 *68:8 3.24148e-05
7 *340:A1 *67:10 1.2818e-05
8 *348:A2 *340:B1 5.50106e-05
9 *52:20 *67:10 2.75733e-06
10 *55:12 *67:10 5.27182e-05
*RES
1 *339:X *67:10 42.9093 
2 *67:10 *67:12 15 
3 *67:12 *348:C1 23 
4 *67:12 *340:B1 23.6214 
*END

*D_NET *68 0.0020824
*CONN
*I *341:B I *D sky130_fd_sc_hd__xnor2_1
*I *340:Y O *D sky130_fd_sc_hd__a21oi_1
*CAP
1 *341:B 0.000293871
2 *340:Y 0.000250319
3 *68:8 0.000544189
4 *341:B *111:12 6.45006e-05
5 *68:8 *111:12 5.58003e-05
6 *68:8 *111:53 0.000189848
7 *338:B *341:B 8.93709e-05
8 *340:B1 *68:8 3.24148e-05
9 *348:A2 *68:8 1.10658e-05
10 *348:B1 *341:B 8.16757e-06
11 *348:B1 *68:8 0.000542851
*RES
1 *340:Y *68:8 44.815 
2 *68:8 *341:B 43.4271 
*END

*D_NET *69 0.000183973
*CONN
*I *344:A2 I *D sky130_fd_sc_hd__a21o_1
*I *341:Y O *D sky130_fd_sc_hd__xnor2_1
*CAP
1 *344:A2 4.65687e-05
2 *341:Y 4.65687e-05
3 *36:54 *344:A2 9.0836e-05
*RES
1 *341:Y *344:A2 47.4707 
*END

*D_NET *70 0.00128352
*CONN
*I *343:B1 I *D sky130_fd_sc_hd__o211a_1
*I *342:X O *D sky130_fd_sc_hd__a21o_1
*CAP
1 *343:B1 1.17588e-05
2 *342:X 0.00031251
3 *70:10 0.000324269
4 *343:B1 *111:16 5.56356e-05
5 *343:B1 *133:14 5.79559e-05
6 *70:10 *335:B1 2.08366e-05
7 *70:10 *342:A2 9.91548e-05
8 *70:10 *75:18 0.000147344
9 *70:10 *116:63 1.31414e-05
10 *36:44 *70:10 0.000187612
11 *63:10 *70:10 5.3304e-05
*RES
1 *342:X *70:10 44.09 
2 *70:10 *343:B1 38.6214 
*END

*D_NET *71 0.00165335
*CONN
*I *344:B1 I *D sky130_fd_sc_hd__a21o_1
*I *343:X O *D sky130_fd_sc_hd__o211a_1
*CAP
1 *344:B1 0.000511647
2 *343:X 8.31402e-05
3 *71:8 0.000594787
4 *338:A *344:B1 5.74259e-05
5 *341:A *344:B1 0.000187856
6 *36:54 *344:B1 0.000218498
*RES
1 *343:X *71:8 39.2014 
2 *71:8 *344:B1 46.1407 
*END

*D_NET *72 0.00250414
*CONN
*I *364:A3 I *D sky130_fd_sc_hd__o31a_1
*I *354:B1 I *D sky130_fd_sc_hd__a211oi_1
*I *346:B I *D sky130_fd_sc_hd__xnor2_1
*I *345:X O *D sky130_fd_sc_hd__o21a_1
*CAP
1 *364:A3 0.00017737
2 *354:B1 8.85429e-05
3 *346:B 0.000207967
4 *345:X 0.000142
5 *72:19 0.000380404
6 *72:8 0.000464459
7 *346:B *346:A 7.84105e-05
8 *346:B *117:10 9.47303e-05
9 *346:B *121:12 7.17279e-05
10 *346:B *121:22 7.97499e-05
11 *354:B1 *354:C1 9.65021e-05
12 *364:A3 *354:C1 0.000139072
13 *364:A3 *355:A2 5.61255e-06
14 *364:A3 *355:C1 2.64616e-05
15 *364:A3 *117:8 2.72763e-05
16 *364:A3 *117:54 9.50633e-06
17 *72:19 *354:C1 3.70094e-05
18 *72:19 *117:8 4.78793e-05
19 *72:19 *117:10 0.000106786
20 *72:19 *121:12 0.000129124
21 *354:A2 *354:B1 2.18506e-05
22 *16:11 *364:A3 7.1699e-05
*RES
1 *345:X *72:8 39.5743 
2 *72:8 *346:B 43.075 
3 *72:8 *72:19 4.01857 
4 *72:19 *354:B1 39.5743 
5 *72:19 *364:A3 41.5007 
*END

*D_NET *73 0.00231978
*CONN
*I *359:B1 I *D sky130_fd_sc_hd__a32o_1
*I *369:A2 I *D sky130_fd_sc_hd__a21bo_1
*I *347:B I *D sky130_fd_sc_hd__xor2_1
*I *346:Y O *D sky130_fd_sc_hd__xnor2_1
*CAP
1 *359:B1 0.000110323
2 *369:A2 0
3 *347:B 0
4 *346:Y 0.000114662
5 *73:21 0.000391649
6 *73:8 0.000395988
7 *359:B1 *359:B2 0.000183544
8 *359:B1 *79:10 3.51646e-05
9 *73:8 *121:22 4.77213e-05
10 *73:21 *347:A 5.82853e-05
11 *73:21 *74:8 0.000321911
12 *73:21 *116:10 0.000218229
13 *73:21 *121:22 0.000144825
14 *73:21 *134:12 0.000219922
15 *63:36 *359:B1 7.75593e-05
*RES
1 *346:Y *73:8 25.0714 
2 *73:8 *347:B 23 
3 *73:8 *73:21 38.8243 
4 *73:21 *369:A2 23 
5 *73:21 *359:B1 25.7654 
*END

*D_NET *74 0.00242699
*CONN
*I *350:A I *D sky130_fd_sc_hd__xnor2_1
*I *359:A2 I *D sky130_fd_sc_hd__a32o_1
*I *370:A2 I *D sky130_fd_sc_hd__a31oi_1
*I *347:X O *D sky130_fd_sc_hd__xor2_1
*CAP
1 *350:A 0
2 *359:A2 2.69747e-05
3 *370:A2 0.000223183
4 *347:X 0.00035785
5 *74:12 0.000376896
6 *74:8 0.000484588
7 *370:A2 *76:10 0.000154003
8 *370:A2 *85:10 0
9 *370:A2 *94:8 9.73853e-06
10 *74:8 *121:22 0.000108896
11 *74:12 *76:10 0.000191878
12 *63:28 *74:12 0.0001366
13 *63:36 *370:A2 3.4474e-05
14 *73:21 *74:8 0.000321911
*RES
1 *347:X *74:8 30.6643 
2 *74:8 *74:12 17.61 
3 *74:12 *370:A2 42.5571 
4 *74:12 *359:A2 38.6214 
5 *74:8 *350:A 23 
*END

*D_NET *75 0.00529849
*CONN
*I *359:A3 I *D sky130_fd_sc_hd__a32o_1
*I *349:B I *D sky130_fd_sc_hd__nand2_1
*I *370:A3 I *D sky130_fd_sc_hd__a31oi_1
*I *348:X O *D sky130_fd_sc_hd__a211o_1
*CAP
1 *359:A3 0
2 *349:B 3.03677e-05
3 *370:A3 0.000130395
4 *348:X 0.000792011
5 *75:48 0.000308193
6 *75:20 0.000317254
7 *75:18 0.0012567
8 *349:B *116:40 2.95214e-05
9 *370:A3 *76:10 0.000140101
10 *370:A3 *116:40 2.04804e-05
11 *75:18 *335:B1 8.47522e-05
12 *75:18 *342:A2 0.000201988
13 *75:18 *116:40 0.000122257
14 *75:18 *116:49 0.000300349
15 *75:20 *116:40 4.70149e-05
16 *75:48 *353:A2 5.56356e-05
17 *75:48 *389:CLK 2.58781e-05
18 *75:48 *79:10 0.000140668
19 *75:48 *111:16 2.1819e-05
20 *75:48 *111:35 7.84105e-05
21 *335:A1 *75:18 1.47709e-05
22 *335:A2 *75:18 0.000361027
23 *348:B1 *75:18 0.000454153
24 *349:A *370:A3 6.92498e-05
25 *353:A1 *75:48 0.000142675
26 *63:28 *75:48 5.47983e-06
27 *70:10 *75:18 0.000147344
*RES
1 *348:X *75:18 43.2793 
2 *75:18 *75:20 2.52714 
3 *75:20 *370:A3 26.3764 
4 *75:20 *349:B 24.4189 
5 *75:18 *75:48 36.9393 
6 *75:48 *359:A3 23 
*END

*D_NET *76 0.00120012
*CONN
*I *350:B I *D sky130_fd_sc_hd__xnor2_1
*I *349:Y O *D sky130_fd_sc_hd__nand2_1
*CAP
1 *350:B 0
2 *349:Y 0.00030759
3 *76:10 0.00030759
4 *370:A2 *76:10 0.000154003
5 *370:A3 *76:10 0.000140101
6 *63:28 *76:10 1.39826e-05
7 *63:36 *76:10 8.49722e-05
8 *74:12 *76:10 0.000191878
*RES
1 *349:Y *76:10 44.6493 
2 *76:10 *350:B 38 
*END

*D_NET *77 0.000400074
*CONN
*I *353:A2 I *D sky130_fd_sc_hd__a21o_1
*I *350:Y O *D sky130_fd_sc_hd__xnor2_1
*CAP
1 *353:A2 1.87628e-05
2 *350:Y 0.000111511
3 *77:8 0.000130274
4 *353:A2 *79:10 2.93431e-05
5 *77:8 *389:CLK 3.40618e-05
6 *63:28 *77:8 2.04854e-05
7 *75:48 *353:A2 5.56356e-05
*RES
1 *350:Y *77:8 39.9057 
2 *77:8 *353:A2 38.6214 
*END

*D_NET *78 0.000353171
*CONN
*I *352:B1 I *D sky130_fd_sc_hd__o211a_1
*I *351:X O *D sky130_fd_sc_hd__a21o_1
*CAP
1 *352:B1 4.46401e-05
2 *351:X 4.46401e-05
3 *352:B1 *351:A2 0.000143421
4 *352:B1 *352:A1 8.1796e-05
5 *352:B1 *134:32 3.86731e-05
*RES
1 *351:X *352:B1 48.0714 
*END

*D_NET *79 0.00196469
*CONN
*I *353:B1 I *D sky130_fd_sc_hd__a21o_1
*I *352:X O *D sky130_fd_sc_hd__o211a_1
*CAP
1 *353:B1 0
2 *352:X 0.000461628
3 *79:10 0.000461628
4 *79:10 *359:B2 0.000230718
5 *79:10 *85:10 5.79559e-05
6 *79:10 *111:16 5.56356e-05
7 *79:10 *122:30 0.000232794
8 *79:10 *134:45 0.000232794
9 *353:A2 *79:10 2.93431e-05
10 *359:B1 *79:10 3.51646e-05
11 *63:28 *79:10 8.06804e-06
12 *63:36 *79:10 1.82958e-05
13 *75:48 *79:10 0.000140668
*RES
1 *352:X *79:10 34.1443 
2 *79:10 *353:B1 23 
*END

*D_NET *80 0.00202363
*CONN
*I *357:A1 I *D sky130_fd_sc_hd__o21ai_1
*I *356:B I *D sky130_fd_sc_hd__nor3_1
*I *354:Y O *D sky130_fd_sc_hd__a211oi_1
*CAP
1 *357:A1 0
2 *356:B 0
3 *354:Y 9.72344e-05
4 *80:14 0.000395078
5 *80:6 0.000492312
6 *80:14 *356:A 2.64616e-05
7 *80:14 *373:B1 0
8 *80:14 *81:12 1.35764e-05
9 *80:14 *116:31 0.000249351
10 *80:14 *121:10 0
11 *80:14 *121:70 5.3304e-05
12 *80:14 *122:16 0.000201183
13 *80:14 *122:22 2.42807e-05
14 *354:A2 *80:6 5.79559e-05
15 *43:65 *80:14 5.43973e-05
16 *43:95 *80:6 1.56446e-05
17 *43:95 *80:14 0.00024635
18 *60:20 *80:6 9.65021e-05
*RES
1 *354:Y *80:6 25.0507 
2 *80:6 *80:14 39.2179 
3 *80:14 *356:B 23 
4 *80:6 *357:A1 23 
*END

*D_NET *81 0.00210981
*CONN
*I *356:C I *D sky130_fd_sc_hd__nor3_1
*I *357:A2 I *D sky130_fd_sc_hd__o21ai_1
*I *355:X O *D sky130_fd_sc_hd__o311a_1
*CAP
1 *356:C 0
2 *357:A2 0
3 *355:X 0
4 *81:27 0.000416376
5 *81:12 0.000199638
6 *81:4 0.000616013
7 *81:12 *357:B1 5.40624e-05
8 *81:12 *83:12 0.000110184
9 *81:12 *83:27 5.56356e-05
10 *81:12 *116:31 2.71502e-05
11 *81:27 *356:A 0.000347796
12 *81:27 *357:B1 0.000158463
13 *81:27 *83:12 2.31641e-05
14 *81:27 *121:70 7.87147e-05
15 *81:27 *122:16 0
16 *60:20 *81:12 9.03964e-06
17 *80:14 *81:12 1.35764e-05
*RES
1 *355:X *81:4 23 
2 *81:4 *81:12 34.06 
3 *81:12 *357:A2 23 
4 *81:4 *81:27 37.7471 
5 *81:27 *356:C 23 
*END

*D_NET *82 0.00394623
*CONN
*I *358:A_N I *D sky130_fd_sc_hd__and2b_1
*I *371:A I *D sky130_fd_sc_hd__nor2_1
*I *377:A1 I *D sky130_fd_sc_hd__o31a_1
*I *356:Y O *D sky130_fd_sc_hd__nor3_1
*CAP
1 *358:A_N 0
2 *371:A 0
3 *377:A1 4.73723e-05
4 *356:Y 9.7112e-05
5 *82:46 0.000249998
6 *82:33 0.000475958
7 *82:14 0.000774751
8 *82:6 0.000598531
9 *377:A1 *95:33 1.96529e-05
10 *82:6 *356:A 0.000146822
11 *82:14 *377:B1 2.45549e-06
12 *82:14 *91:6 9.88574e-06
13 *82:14 *91:16 3.65023e-05
14 *82:14 *101:8 2.64616e-05
15 *82:14 *101:16 6.15719e-05
16 *82:14 *122:16 0
17 *82:33 *372:A 0.0001296
18 *82:33 *372:B 0.000232287
19 *82:33 *377:A2 0.000113398
20 *82:33 *377:B1 1.89178e-05
21 *82:33 *95:33 7.61229e-06
22 *82:33 *97:10 1.08287e-05
23 *82:46 *356:A 0.000285612
24 *82:46 *357:B1 0.000192177
25 *82:46 *88:8 0.000195871
26 *82:46 *95:12 5.02445e-05
27 *82:46 *121:70 8.06804e-06
28 *82:46 *122:16 0
29 *82:46 *122:30 0.000154535
*RES
1 *356:Y *82:6 24.5743 
2 *82:6 *82:14 34.06 
3 *82:14 *377:A1 24.2014 
4 *82:14 *82:33 39.3629 
5 *82:33 *371:A 23 
6 *82:6 *82:46 37.2293 
7 *82:46 *358:A_N 23 
*END

*D_NET *83 0.0021904
*CONN
*I *369:B1_N I *D sky130_fd_sc_hd__a21bo_1
*I *358:B I *D sky130_fd_sc_hd__and2b_1
*I *357:Y O *D sky130_fd_sc_hd__o21ai_1
*CAP
1 *369:B1_N 0
2 *358:B 0
3 *357:Y 0
4 *83:27 0.000433591
5 *83:12 0.000347152
6 *83:4 0.000780742
7 *83:12 *116:31 0.000138872
8 *83:27 *357:B1 0.000134375
9 *83:27 *116:31 0
10 *83:27 *122:30 9.51551e-05
11 *83:27 *122:36 0
12 *83:27 *134:45 5.56279e-05
13 *60:20 *83:27 1.59071e-05
14 *81:12 *83:12 0.000110184
15 *81:12 *83:27 5.56356e-05
16 *81:27 *83:12 2.31641e-05
*RES
1 *357:Y *83:4 23 
2 *83:4 *83:12 35.8621 
3 *83:12 *358:B 23 
4 *83:4 *83:27 38.6793 
5 *83:27 *369:B1_N 23 
*END

*D_NET *84 0.000206387
*CONN
*I *360:A I *D sky130_fd_sc_hd__xor2_1
*I *358:X O *D sky130_fd_sc_hd__and2b_1
*CAP
1 *360:A 0.000103194
2 *358:X 0.000103194
*RES
1 *358:X *360:A 48.0714 
*END

*D_NET *85 0.00162724
*CONN
*I *360:B I *D sky130_fd_sc_hd__xor2_1
*I *359:X O *D sky130_fd_sc_hd__a32o_1
*CAP
1 *360:B 0.000245117
2 *359:X 0.000405943
3 *85:10 0.00065106
4 *360:B *86:10 5.22448e-05
5 *85:10 *111:35 0.000214919
6 *370:A2 *85:10 0
7 *79:10 *85:10 5.79559e-05
*RES
1 *359:X *85:10 45.4571 
2 *85:10 *360:B 41.3764 
*END

*D_NET *86 0.00145955
*CONN
*I *363:A2 I *D sky130_fd_sc_hd__a21o_1
*I *360:X O *D sky130_fd_sc_hd__xor2_1
*CAP
1 *363:A2 6.47304e-05
2 *360:X 0.000356114
3 *86:10 0.000420844
4 *363:A2 *363:B1 8.48249e-05
5 *363:A2 *121:70 0.000188927
6 *86:10 *107:8 0.000178911
7 *86:10 *111:35 8.47792e-05
8 *86:10 *121:70 1.46784e-05
9 *360:B *86:10 5.22448e-05
10 *363:A1 *363:A2 1.34914e-05
*RES
1 *360:X *86:10 44.8771 
2 *86:10 *363:A2 40.5479 
*END

*D_NET *87 0.000350495
*CONN
*I *362:B1 I *D sky130_fd_sc_hd__o211a_1
*I *361:X O *D sky130_fd_sc_hd__a21o_1
*CAP
1 *362:B1 5.25912e-05
2 *361:X 5.25912e-05
3 *362:B1 *362:A1 0.000155598
4 *362:B1 *362:A2 1.09903e-05
5 *362:B1 *135:17 7.87243e-05
*RES
1 *361:X *362:B1 48.0714 
*END

*D_NET *88 0.0014006
*CONN
*I *363:B1 I *D sky130_fd_sc_hd__a21o_1
*I *362:X O *D sky130_fd_sc_hd__o211a_1
*CAP
1 *363:B1 0.000276888
2 *362:X 6.12796e-05
3 *88:8 0.000338167
4 *363:B1 *121:70 0.000147538
5 *88:8 *95:12 0.00019364
6 *363:A1 *363:B1 0.000102389
7 *363:A2 *363:B1 8.48249e-05
8 *82:46 *88:8 0.000195871
*RES
1 *362:X *88:8 40.61 
2 *88:8 *363:B1 44.3593 
*END

*D_NET *89 0.00209129
*CONN
*I *365:B I *D sky130_fd_sc_hd__xnor2_1
*I *380:B1 I *D sky130_fd_sc_hd__a21o_1
*I *364:X O *D sky130_fd_sc_hd__o31a_1
*CAP
1 *365:B 0.000151406
2 *380:B1 0
3 *364:X 0.000366292
4 *89:10 0.000517697
5 *365:B *365:A 2.95423e-05
6 *365:B *119:23 8.25305e-05
7 *89:10 *355:A2 1.35999e-05
8 *89:10 *117:54 4.22275e-05
9 *89:10 *118:8 8.57577e-05
10 *89:10 *121:10 3.2865e-05
11 *89:10 *121:12 1.39826e-05
12 *16:11 *89:10 0.000141038
13 *17:19 *365:B 0.000157488
14 *32:10 *365:B 3.37594e-05
15 *43:56 *365:B 3.9131e-05
16 *43:56 *89:10 0.000383972
*RES
1 *364:X *89:10 46.6379 
2 *89:10 *380:B1 38 
3 *89:10 *365:B 41.5836 
*END

*D_NET *90 0.00183719
*CONN
*I *367:B I *D sky130_fd_sc_hd__or2_1
*I *366:B I *D sky130_fd_sc_hd__nand2_1
*I *365:Y O *D sky130_fd_sc_hd__xnor2_1
*CAP
1 *367:B 0.000207444
2 *366:B 0
3 *365:Y 0.000320354
4 *90:12 0.000105589
5 *90:6 0.000633386
6 *367:B *367:A 5.26016e-05
7 *367:B *374:A1 6.11155e-05
8 *90:6 *374:A1 0.000221827
9 *90:6 *119:8 1.66293e-05
10 *90:12 *98:8 8.50366e-05
11 *90:12 *122:16 8.90674e-06
12 *90:12 *136:14 2.56377e-05
13 *17:19 *90:6 9.86609e-05
*RES
1 *365:Y *90:6 27.4329 
2 *90:6 *90:12 32.2579 
3 *90:12 *366:B 23 
4 *90:6 *367:B 27.0186 
*END

*D_NET *91 0.00219778
*CONN
*I *377:B1 I *D sky130_fd_sc_hd__o31a_1
*I *368:A I *D sky130_fd_sc_hd__nand2_1
*I *366:Y O *D sky130_fd_sc_hd__nand2_1
*CAP
1 *377:B1 0.000103609
2 *368:A 0
3 *366:Y 0.000158796
4 *91:16 0.000344286
5 *91:6 0.000606692
6 *377:B1 *95:33 4.07999e-05
7 *91:6 *366:A 3.22051e-05
8 *91:6 *101:8 2.93845e-05
9 *91:16 *375:B1 5.3304e-05
10 *91:16 *377:A2 0.000195316
11 *91:16 *92:8 1.142e-05
12 *91:16 *93:10 0.000126363
13 *91:16 *95:12 3.20914e-05
14 *91:16 *101:16 0.000395749
15 *82:14 *377:B1 2.45549e-06
16 *82:14 *91:6 9.88574e-06
17 *82:14 *91:16 3.65023e-05
18 *82:33 *377:B1 1.89178e-05
*RES
1 *366:Y *91:6 25.5271 
2 *91:6 *91:16 37.6021 
3 *91:16 *368:A 23 
4 *91:6 *377:B1 25.0714 
*END

*D_NET *92 0.000444752
*CONN
*I *368:B I *D sky130_fd_sc_hd__nand2_1
*I *367:X O *D sky130_fd_sc_hd__or2_1
*CAP
1 *368:B 4.17196e-05
2 *367:X 0.000105276
3 *92:8 0.000146996
4 *368:B *375:B1 0.000100477
5 *92:8 *93:10 3.88629e-05
6 *91:16 *92:8 1.142e-05
*RES
1 *367:X *92:8 39.9057 
2 *92:8 *368:B 39.0979 
*END

*D_NET *93 0.0013079
*CONN
*I *372:A I *D sky130_fd_sc_hd__xnor2_1
*I *377:A2 I *D sky130_fd_sc_hd__o31a_1
*I *368:Y O *D sky130_fd_sc_hd__nand2_1
*CAP
1 *372:A 0.000126958
2 *377:A2 7.47752e-05
3 *368:Y 0.000123796
4 *93:10 0.00032553
5 *93:10 *375:B1 5.3304e-05
6 *82:33 *372:A 0.0001296
7 *82:33 *377:A2 0.000113398
8 *91:16 *377:A2 0.000195316
9 *91:16 *93:10 0.000126363
10 *92:8 *93:10 3.88629e-05
*RES
1 *368:Y *93:10 40.5271 
2 *93:10 *377:A2 40.61 
3 *93:10 *372:A 41.1486 
*END

*D_NET *94 0.000377363
*CONN
*I *370:B1 I *D sky130_fd_sc_hd__a31oi_1
*I *369:X O *D sky130_fd_sc_hd__a21bo_1
*CAP
1 *370:B1 0
2 *369:X 6.82279e-05
3 *94:8 6.82279e-05
4 *94:8 *116:10 0.000165401
5 *370:A2 *94:8 9.73853e-06
6 *63:36 *94:8 6.57673e-05
*RES
1 *369:X *94:8 40.2579 
2 *94:8 *370:B1 38 
*END

*D_NET *95 0.0035069
*CONN
*I *371:B I *D sky130_fd_sc_hd__nor2_1
*I *377:A3 I *D sky130_fd_sc_hd__o31a_1
*I *370:Y O *D sky130_fd_sc_hd__a31oi_1
*CAP
1 *371:B 0
2 *377:A3 0
3 *370:Y 7.92155e-05
4 *95:33 0.000443155
5 *95:12 0.00105822
6 *95:8 0.000694277
7 *95:8 *116:14 2.64616e-05
8 *95:8 *116:40 8.06804e-06
9 *95:12 *116:10 6.22581e-05
10 *95:12 *122:30 0.000658936
11 *95:33 *372:B 0.000100069
12 *95:33 *97:10 3.22051e-05
13 *95:33 *121:70 0
14 *377:A1 *95:33 1.96529e-05
15 *377:B1 *95:33 4.07999e-05
16 *82:33 *95:33 7.61229e-06
17 *82:46 *95:12 5.02445e-05
18 *88:8 *95:12 0.00019364
19 *91:16 *95:12 3.20914e-05
*RES
1 *370:Y *95:8 39.0979 
2 *95:8 *95:12 29.5829 
3 *95:12 *377:A3 23 
4 *95:12 *95:33 38.8036 
5 *95:33 *371:B 23 
*END

*D_NET *96 0.000476902
*CONN
*I *372:B I *D sky130_fd_sc_hd__xnor2_1
*I *371:Y O *D sky130_fd_sc_hd__nor2_1
*CAP
1 *372:B 6.43197e-05
2 *371:Y 6.43197e-05
3 *372:B *97:10 1.59071e-05
4 *82:33 *372:B 0.000232287
5 *95:33 *372:B 0.000100069
*RES
1 *371:Y *372:B 48.5271 
*END

*D_NET *97 0.000512419
*CONN
*I *375:A2 I *D sky130_fd_sc_hd__a21o_1
*I *372:Y O *D sky130_fd_sc_hd__xnor2_1
*CAP
1 *375:A2 0
2 *372:Y 0.000226739
3 *97:10 0.000226739
4 *372:B *97:10 1.59071e-05
5 *82:33 *97:10 1.08287e-05
6 *95:33 *97:10 3.22051e-05
*RES
1 *372:Y *97:10 41.48 
2 *97:10 *375:A2 38 
*END

*D_NET *98 0.000415925
*CONN
*I *374:B1 I *D sky130_fd_sc_hd__o211a_1
*I *373:X O *D sky130_fd_sc_hd__a21o_1
*CAP
1 *374:B1 0
2 *373:X 8.3172e-05
3 *98:8 8.3172e-05
4 *98:8 *136:14 0.000164545
5 *90:12 *98:8 8.50366e-05
*RES
1 *373:X *98:8 40.2579 
2 *98:8 *374:B1 38 
*END

*D_NET *99 0.00125483
*CONN
*I *375:B1 I *D sky130_fd_sc_hd__a21o_1
*I *374:X O *D sky130_fd_sc_hd__o211a_1
*CAP
1 *375:B1 0.000383982
2 *374:X 7.12646e-05
3 *99:8 0.000455247
4 *375:B1 *108:10 2.49531e-05
5 *99:8 *101:16 0.000112294
6 *368:B *375:B1 0.000100477
7 *91:16 *375:B1 5.3304e-05
8 *93:10 *375:B1 5.3304e-05
*RES
1 *374:X *99:8 39.5536 
2 *99:8 *375:B1 44.8357 
*END

*D_NET *100 0.00225023
*CONN
*I *379:B I *D sky130_fd_sc_hd__nor2_1
*I *384:A2 I *D sky130_fd_sc_hd__o221a_1
*I *376:X O *D sky130_fd_sc_hd__and2_1
*CAP
1 *379:B 0.000291452
2 *384:A2 0.000355465
3 *376:X 0.000165782
4 *100:10 0.000812699
5 *379:B *378:A 0.000245221
6 *379:B *383:A 7.9636e-05
7 *379:B *137:25 4.81613e-05
8 *384:A2 *309:A0 2.37158e-05
9 *384:A2 *101:16 6.12208e-05
10 *100:10 *383:A 8.57577e-05
11 *100:10 *137:25 3.7122e-06
12 *384:B1 *384:A2 7.74023e-05
*RES
1 *376:X *100:10 40.2993 
2 *100:10 *384:A2 43.2821 
3 *100:10 *379:B 44.5664 
*END

*D_NET *101 0.00273147
*CONN
*I *382:A I *D sky130_fd_sc_hd__xnor2_1
*I *377:X O *D sky130_fd_sc_hd__o31a_1
*CAP
1 *382:A 0
2 *377:X 2.66148e-05
3 *101:16 0.000773281
4 *101:8 0.000799896
5 *101:16 *383:A 0
6 *101:16 *122:10 0
7 *101:16 *122:136 0.000242542
8 *384:A2 *101:16 6.12208e-05
9 *384:B1 *101:16 1.3523e-05
10 *35:8 *101:16 0.000188934
11 *82:14 *101:8 2.64616e-05
12 *82:14 *101:16 6.15719e-05
13 *91:6 *101:8 2.93845e-05
14 *91:16 *101:16 0.000395749
15 *99:8 *101:16 0.000112294
*RES
1 *377:X *101:8 38.6214 
2 *101:8 *101:16 32.3793 
3 *101:16 *382:A 23 
*END

*D_NET *102 0.000534059
*CONN
*I *385:D I *D sky130_fd_sc_hd__dfxtp_1
*I *310:X O *D sky130_fd_sc_hd__clkbuf_1
*CAP
1 *385:D 1.58638e-05
2 *310:X 0.000128868
3 *102:10 0.000144732
4 *102:10 *112:34 9.42908e-05
5 *102:10 *123:10 9.20193e-05
6 *102:10 *138:10 5.82853e-05
*RES
1 *310:X *102:10 41.2314 
2 *102:10 *385:D 38.1916 
*END

*D_NET *103 0.0015857
*CONN
*I *386:D I *D sky130_fd_sc_hd__dfxtp_1
*I *322:X O *D sky130_fd_sc_hd__o211a_1
*CAP
1 *386:D 6.10012e-05
2 *322:X 0.00053594
3 *103:10 0.000596941
4 *103:10 *112:34 6.45006e-05
5 *318:A_N *103:10 0.000138523
6 *41:10 *103:10 8.3843e-05
7 *47:21 *103:10 6.7177e-06
8 *50:8 *103:10 9.82287e-05
*RES
1 *322:X *103:10 47.9429 
2 *103:10 *386:D 38.9943 
*END

*D_NET *104 0.000356133
*CONN
*I *387:D I *D sky130_fd_sc_hd__dfxtp_1
*I *331:X O *D sky130_fd_sc_hd__o211a_1
*CAP
1 *387:D 0.000178067
2 *331:X 0.000178067
*RES
1 *331:X *387:D 48.843 
*END

*D_NET *105 0.000666518
*CONN
*I *388:D I *D sky130_fd_sc_hd__dfxtp_1
*I *344:X O *D sky130_fd_sc_hd__a21o_1
*CAP
1 *388:D 0.000238174
2 *344:X 9.50852e-05
3 *105:8 0.000333259
*RES
1 *344:X *105:8 39.5536 
2 *105:8 *388:D 42.003 
*END

*D_NET *106 0.00120375
*CONN
*I *389:D I *D sky130_fd_sc_hd__dfxtp_1
*I *353:X O *D sky130_fd_sc_hd__a21o_1
*CAP
1 *389:D 2.43172e-05
2 *353:X 0.000239126
3 *106:10 0.000263443
4 *389:D *121:22 0.00014884
5 *106:10 *111:16 0.000188927
6 *106:10 *121:28 0.000187765
7 *63:28 *389:D 0.000151331
*RES
1 *353:X *106:10 43.0129 
2 *106:10 *389:D 39.6209 
*END

*D_NET *107 0.000617218
*CONN
*I *390:D I *D sky130_fd_sc_hd__dfxtp_1
*I *363:X O *D sky130_fd_sc_hd__a21o_1
*CAP
1 *390:D 4.01571e-05
2 *363:X 0.000145705
3 *107:8 0.000185862
4 *390:D *111:35 5.73018e-05
5 *107:8 *111:35 9.28078e-06
6 *86:10 *107:8 0.000178911
*RES
1 *363:X *107:8 40.61 
2 *107:8 *390:D 38.668 
*END

*D_NET *108 0.00109787
*CONN
*I *391:D I *D sky130_fd_sc_hd__dfxtp_1
*I *375:X O *D sky130_fd_sc_hd__a21o_1
*CAP
1 *391:D 6.54826e-05
2 *375:X 0.000456635
3 *108:10 0.000522118
4 *391:D *112:8 2.42174e-05
5 *375:A1 *108:10 4.46742e-06
6 *375:B1 *108:10 2.49531e-05
*RES
1 *375:X *108:10 44.8979 
2 *108:10 *391:D 39.1445 
*END

*D_NET *109 0.000398562
*CONN
*I *392:D I *D sky130_fd_sc_hd__dfxtp_1
*I *384:X O *D sky130_fd_sc_hd__o221a_1
*CAP
1 *392:D 2.23312e-05
2 *384:X 2.23312e-05
3 *392:D *309:A0 0.00017695
4 *384:A1 *392:D 0.00017695
*RES
1 *384:X *392:D 47.8902 
*END

*D_NET *110 0.00483307
*CONN
*I *395:A I *D sky130_fd_sc_hd__clkbuf_16
*I *394:A I *D sky130_fd_sc_hd__clkbuf_16
*I *393:X O *D sky130_fd_sc_hd__clkbuf_16
*CAP
1 *395:A 0
2 *394:A 0
3 *393:X 0
4 *110:23 0.000762414
5 *110:12 0.000639495
6 *110:6 0.00140191
7 *110:12 *138:39 0.000141888
8 *110:23 *112:8 5.01115e-05
9 *110:23 *124:40 0.000133649
10 *110:23 *138:33 0.000344447
11 *110:23 *138:35 0.000298497
12 *110:23 *138:39 2.55642e-05
13 *310:A *110:23 5.5792e-05
14 *335:A1 *110:12 5.56356e-05
15 *335:A2 *110:12 5.79559e-05
16 *36:38 *110:12 0.00021331
17 *36:44 *110:12 0.000577324
18 *37:40 *110:23 0
19 *37:65 *110:23 7.50825e-05
*RES
1 *393:X *110:6 38 
2 *110:6 *110:12 28.4436 
3 *110:12 *394:A 23 
4 *110:6 *110:23 29.7693 
5 *110:23 *395:A 23 
*END

*D_NET *111 0.00741463
*CONN
*I *387:CLK I *D sky130_fd_sc_hd__dfxtp_1
*I *388:CLK I *D sky130_fd_sc_hd__dfxtp_1
*I *390:CLK I *D sky130_fd_sc_hd__dfxtp_1
*I *389:CLK I *D sky130_fd_sc_hd__dfxtp_1
*I *394:X O *D sky130_fd_sc_hd__clkbuf_16
*CAP
1 *387:CLK 0
2 *388:CLK 0
3 *390:CLK 0
4 *389:CLK 0.000214038
5 *394:X 0
6 *111:53 0.000655981
7 *111:35 0.000655283
8 *111:16 0.00142139
9 *111:12 0.000729408
10 *111:4 0.000833317
11 *389:CLK *121:22 5.56356e-05
12 *111:16 *337:A 0.000131498
13 *111:16 *116:63 0.00027108
14 *111:16 *122:53 0.000220592
15 *111:16 *133:14 4.19779e-05
16 *111:35 *121:28 0
17 *111:53 *132:34 0.000121282
18 *337:B *111:16 0.000102204
19 *337:C *111:16 3.36371e-05
20 *338:B *111:12 6.38433e-05
21 *341:B *111:12 6.45006e-05
22 *343:B1 *111:16 5.56356e-05
23 *348:B1 *111:12 0.000132464
24 *353:A1 *111:16 0.000127863
25 *390:D *111:35 5.73018e-05
26 *19:11 *111:53 0.000167657
27 *43:44 *111:35 7.97969e-05
28 *52:10 *111:53 0
29 *52:20 *111:53 0.000127903
30 *57:8 *111:53 3.28604e-05
31 *63:28 *389:CLK 5.8118e-05
32 *68:8 *111:12 5.58003e-05
33 *68:8 *111:53 0.000189848
34 *75:48 *389:CLK 2.58781e-05
35 *75:48 *111:16 2.1819e-05
36 *75:48 *111:35 7.84105e-05
37 *77:8 *389:CLK 3.40618e-05
38 *79:10 *111:16 5.56356e-05
39 *85:10 *111:35 0.000214919
40 *86:10 *111:35 8.47792e-05
41 *106:10 *111:16 0.000188927
42 *107:8 *111:35 9.28078e-06
*RES
1 *394:X *111:4 23 
2 *111:4 *111:12 33.48 
3 *111:12 *111:16 28.9614 
4 *111:16 *389:CLK 41.5836 
5 *111:16 *111:35 28.7336 
6 *111:35 *390:CLK 23 
7 *111:12 *388:CLK 23 
8 *111:4 *111:53 44.1686 
9 *111:53 *387:CLK 23 
*END

*D_NET *112 0.00423188
*CONN
*I *386:CLK I *D sky130_fd_sc_hd__dfxtp_1
*I *385:CLK I *D sky130_fd_sc_hd__dfxtp_1
*I *391:CLK I *D sky130_fd_sc_hd__dfxtp_1
*I *392:CLK I *D sky130_fd_sc_hd__dfxtp_1
*I *395:X O *D sky130_fd_sc_hd__clkbuf_16
*CAP
1 *386:CLK 4.17433e-05
2 *385:CLK 0
3 *391:CLK 0
4 *392:CLK 0
5 *395:X 0
6 *112:34 0.000368014
7 *112:16 0.000197221
8 *112:8 0.00144348
9 *112:4 0.00157253
10 *112:8 *130:10 5.5792e-05
11 *112:8 *138:10 4.96303e-05
12 *112:34 *138:10 0.000166395
13 *310:A *112:8 0.000103961
14 *391:D *112:8 2.42174e-05
15 *102:10 *112:34 9.42908e-05
16 *103:10 *112:34 6.45006e-05
17 *110:23 *112:8 5.01115e-05
*RES
1 *395:X *112:4 23 
2 *112:4 *112:8 16.24 
3 *112:8 *112:16 33.7079 
4 *112:16 *392:CLK 23 
5 *112:8 *391:CLK 23 
6 *112:4 *112:34 35.8621 
7 *112:34 *385:CLK 23 
8 *112:34 *386:CLK 23.6214 
*END

*D_NET *113 0.00247025
*CONN
*I *311:A I *D sky130_fd_sc_hd__or2b_1
*I *307:A1 I *D sky130_fd_sc_hd__o21a_1
*I *308:A I *D sky130_fd_sc_hd__nand2_1
*I *396:X O *D sky130_fd_sc_hd__buf_1
*CAP
1 *311:A 4.83906e-05
2 *307:A1 0
3 *308:A 0.000129589
4 *396:X 0.000593045
5 *113:16 0.000192375
6 *113:12 0.000111177
7 *113:10 0.000593045
8 *308:A *307:A2 5.3304e-05
9 *308:A *308:B 3.26893e-05
10 *308:A *138:20 0.000271906
11 *308:A *138:77 0
12 *113:10 *114:12 0
13 *113:10 *138:10 0.000193858
14 *113:10 *138:20 7.98198e-05
15 *113:16 *307:A2 1.24376e-05
16 *113:16 *311:B_N 4.08664e-05
17 *3:13 *113:10 6.17437e-06
18 *20:8 *113:10 1.07201e-06
19 *37:65 *308:A 5.79559e-05
20 *38:10 *308:A 5.25435e-05
*RES
1 *396:X *113:10 47.6943 
2 *113:10 *113:12 15 
3 *113:12 *113:16 1.47071 
4 *113:16 *308:A 26.9771 
5 *113:16 *307:A1 23 
6 *113:12 *311:A 23.6214 
*END

*D_NET *114 0.00616052
*CONN
*I *322:A1 I *D sky130_fd_sc_hd__o211a_1
*I *321:A2 I *D sky130_fd_sc_hd__a211o_1
*I *332:B I *D sky130_fd_sc_hd__or3_2
*I *324:A2 I *D sky130_fd_sc_hd__o21a_1
*I *314:B I *D sky130_fd_sc_hd__and3_1
*I *315:B1 I *D sky130_fd_sc_hd__a21oi_1
*I *397:X O *D sky130_fd_sc_hd__dlymetal6s2s_1
*CAP
1 *322:A1 0
2 *321:A2 2.8324e-05
3 *332:B 0
4 *324:A2 0
5 *314:B 0
6 *315:B1 2.06787e-05
7 *397:X 0.000481304
8 *114:53 0.000188623
9 *114:45 0.000510521
10 *114:39 0.000715489
11 *114:20 0.00053152
12 *114:16 0.00026365
13 *114:12 0.000309557
14 *114:8 0.000672784
15 *315:B1 *124:40 5.56279e-05
16 *321:A2 *121:91 1.8788e-05
17 *321:A2 *121:112 3.5538e-05
18 *114:16 *121:112 9.86777e-06
19 *114:20 *121:112 5.1986e-05
20 *114:39 *121:112 0.000477783
21 *114:39 *138:20 0
22 *114:45 *324:A1 0.000181131
23 *114:45 *332:A 5.37094e-05
24 *114:53 *314:A 1.05235e-05
25 *114:53 *122:81 0.000326502
26 *316:A1 *114:39 6.07397e-05
27 *322:A2 *114:12 1.12863e-05
28 *322:C1 *114:16 5.5792e-05
29 *36:113 *114:12 4.07835e-05
30 *36:113 *114:16 1.74129e-05
31 *37:16 *321:A2 2.10121e-05
32 *37:16 *114:16 0.00022672
33 *41:10 *114:8 5.10686e-05
34 *43:8 *114:53 6.48219e-05
35 *43:10 *114:53 6.07826e-05
36 *43:12 *114:53 2.96154e-05
37 *44:10 *114:39 8.29264e-05
38 *45:6 *315:B1 1.83327e-05
39 *47:21 *114:8 0.000168985
40 *48:10 *114:8 1.75792e-05
41 *50:8 *114:16 5.79821e-05
42 *53:10 *114:45 5.3304e-05
43 *60:10 *114:39 3.43144e-05
44 *60:10 *114:45 0.000143156
45 *113:10 *114:12 0
*RES
1 *397:X *114:8 47.6736 
2 *114:8 *114:12 18.3143 
3 *114:12 *114:16 3.50071 
4 *114:16 *114:20 16.9057 
5 *114:20 *315:B1 38.6214 
6 *114:20 *114:39 23.5757 
7 *114:39 *114:45 5.55143 
8 *114:45 *114:53 34.9921 
9 *114:53 *314:B 23 
10 *114:45 *324:A2 23 
11 *114:39 *332:B 23 
12 *114:16 *321:A2 24.0771 
13 *114:12 *322:A1 23 
*END

*D_NET *115 0.00431152
*CONN
*I *332:C I *D sky130_fd_sc_hd__or3_2
*I *331:A1 I *D sky130_fd_sc_hd__o211a_1
*I *325:A I *D sky130_fd_sc_hd__xnor2_1
*I *330:A2 I *D sky130_fd_sc_hd__a211o_1
*I *398:X O *D sky130_fd_sc_hd__buf_1
*CAP
1 *332:C 0.000295943
2 *331:A1 0
3 *325:A 0.000422532
4 *330:A2 0
5 *398:X 0.000796646
6 *115:38 0.000295943
7 *115:16 0.00058712
8 *115:10 0.000961235
9 *325:A *121:112 5.56356e-05
10 *325:A *129:10 7.58405e-05
11 *332:C *324:A1 0
12 *115:16 *122:66 1.0092e-05
13 *115:16 *129:10 0.000147237
14 *330:C1 *325:A 0.000169052
15 *331:A2 *115:10 0.000129513
16 *331:A2 *115:16 1.14452e-05
17 *19:11 *115:10 4.23714e-05
18 *19:11 *115:16 7.20234e-05
19 *43:44 *325:A 1.24376e-05
20 *46:16 *115:10 2.87959e-05
21 *58:10 *115:16 8.63924e-05
22 *59:10 *325:A 5.79559e-05
23 *59:10 *115:16 4.95908e-05
24 *60:10 *332:C 3.7122e-06
*RES
1 *398:X *115:10 49.1029 
2 *115:10 *115:16 19.8886 
3 *115:16 *330:A2 23 
4 *115:16 *325:A 31.3271 
5 *115:10 *115:38 15 
6 *115:38 *331:A1 23 
7 *115:38 *332:C 27.4743 
*END

*D_NET *116 0.00857392
*CONN
*I *334:A_N I *D sky130_fd_sc_hd__nand3b_1
*I *333:B1_N I *D sky130_fd_sc_hd__a21bo_1
*I *343:A1 I *D sky130_fd_sc_hd__o211a_1
*I *342:A1 I *D sky130_fd_sc_hd__a21o_1
*I *355:A1 I *D sky130_fd_sc_hd__o311a_1
*I *345:A1 I *D sky130_fd_sc_hd__o21a_1
*I *399:X O *D sky130_fd_sc_hd__dlymetal6s2s_1
*CAP
1 *334:A_N 0.000169586
2 *333:B1_N 0
3 *343:A1 0
4 *342:A1 0
5 *355:A1 0
6 *345:A1 3.72695e-05
7 *399:X 0.000529201
8 *116:72 0.00022032
9 *116:63 0.000397364
10 *116:49 0.000663383
11 *116:40 0.000892334
12 *116:31 0.00025082
13 *116:14 0.000585476
14 *116:12 0.000974436
15 *116:10 0.000529201
16 *334:A_N *122:53 4.07715e-05
17 *116:10 *122:30 4.70975e-05
18 *116:63 *122:53 3.20504e-05
19 *116:63 *133:36 0.000166837
20 *116:72 *122:53 3.62323e-05
21 *333:A1 *334:A_N 0.00017466
22 *334:B *334:A_N 0.000371888
23 *345:A2 *116:31 6.57345e-05
24 *349:A *116:40 0.000181963
25 *349:B *116:40 2.95214e-05
26 *370:A3 *116:40 2.04804e-05
27 *399:A *116:10 0.000143655
28 *36:44 *334:A_N 1.69668e-05
29 *36:44 *116:63 0.000105474
30 *36:44 *116:72 2.5415e-05
31 *43:95 *116:31 2.80091e-05
32 *60:16 *334:A_N 0.000117512
33 *60:20 *334:A_N 4.50193e-05
34 *63:36 *116:10 2.56091e-05
35 *70:10 *116:63 1.31414e-05
36 *73:21 *116:10 0.000218229
37 *75:18 *116:40 0.000122257
38 *75:18 *116:49 0.000300349
39 *75:20 *116:40 4.70149e-05
40 *80:14 *116:31 0.000249351
41 *81:12 *116:31 2.71502e-05
42 *83:12 *116:31 0.000138872
43 *83:27 *116:31 0
44 *94:8 *116:10 0.000165401
45 *95:8 *116:14 2.64616e-05
46 *95:8 *116:40 8.06804e-06
47 *95:12 *116:10 6.22581e-05
48 *111:16 *116:63 0.00027108
*RES
1 *399:X *116:10 49.6 
2 *116:10 *116:12 15 
3 *116:12 *116:14 4.90929 
4 *116:14 *345:A1 23.6214 
5 *116:14 *116:31 36.5457 
6 *116:31 *355:A1 23 
7 *116:12 *116:40 10.0464 
8 *116:40 *342:A1 23 
9 *116:40 *116:49 18.48 
10 *116:49 *116:63 37.9336 
11 *116:63 *343:A1 38 
12 *116:49 *116:72 1.20143 
13 *116:72 *333:B1_N 38 
14 *116:72 *334:A_N 44.1314 
*END

*D_NET *117 0.00376001
*CONN
*I *355:A2 I *D sky130_fd_sc_hd__o311a_1
*I *364:A1 I *D sky130_fd_sc_hd__o31a_1
*I *354:A1 I *D sky130_fd_sc_hd__a211oi_1
*I *352:A1 I *D sky130_fd_sc_hd__o211a_1
*I *351:A1 I *D sky130_fd_sc_hd__a21o_1
*I *346:A I *D sky130_fd_sc_hd__xnor2_1
*I *400:X O *D sky130_fd_sc_hd__clkbuf_2
*CAP
1 *355:A2 0.000308181
2 *364:A1 0
3 *354:A1 0.000126132
4 *352:A1 0.000253279
5 *351:A1 0
6 *346:A 0.000141607
7 *400:X 0
8 *117:54 0.000470326
9 *117:25 0.000327684
10 *117:10 0.000425461
11 *117:8 0.000401268
12 *117:6 0.000227832
13 *352:A1 *351:A2 6.76167e-05
14 *352:A1 *134:32 1.12796e-05
15 *352:A1 *134:45 2.93431e-05
16 *355:A2 *355:C1 6.68064e-05
17 *117:25 *351:A2 1.84831e-05
18 *346:B *346:A 7.84105e-05
19 *346:B *117:10 9.47303e-05
20 *352:B1 *352:A1 8.1796e-05
21 *354:A2 *354:A1 5.50106e-05
22 *364:A3 *355:A2 5.61255e-06
23 *364:A3 *117:8 2.72763e-05
24 *364:A3 *117:54 9.50633e-06
25 *364:B1 *355:A2 5.79559e-05
26 *15:17 *117:8 0
27 *15:17 *117:10 0
28 *16:11 *117:54 0.000152328
29 *43:80 *355:A2 5.58003e-05
30 *43:95 *355:A2 5.5792e-05
31 *72:19 *117:8 4.78793e-05
32 *72:19 *117:10 0.000106786
33 *89:10 *355:A2 1.35999e-05
34 *89:10 *117:54 4.22275e-05
*RES
1 *400:X *117:6 38 
2 *117:6 *117:8 1.90571 
3 *117:8 *117:10 5.42714 
4 *117:10 *346:A 40.8793 
5 *117:10 *117:25 16.0979 
6 *117:25 *351:A1 23 
7 *117:25 *352:A1 27.93 
8 *117:8 *354:A1 39.5743 
9 *117:6 *117:54 18.3557 
10 *117:54 *364:A1 23 
11 *117:54 *355:A2 28.4271 
*END

*D_NET *118 0.00324426
*CONN
*I *362:A1 I *D sky130_fd_sc_hd__o211a_1
*I *361:A1 I *D sky130_fd_sc_hd__a21o_1
*I *355:C1 I *D sky130_fd_sc_hd__o311a_1
*I *364:A2 I *D sky130_fd_sc_hd__o31a_1
*I *354:C1 I *D sky130_fd_sc_hd__a211oi_1
*I *401:X O *D sky130_fd_sc_hd__buf_1
*CAP
1 *362:A1 0.000348129
2 *361:A1 0
3 *355:C1 0.000133744
4 *364:A2 0
5 *354:C1 0.000126071
6 *401:X 0
7 *118:37 0.000491609
8 *118:21 0.000133744
9 *118:8 0.000213305
10 *118:4 0.000230714
11 *354:C1 *121:12 0.000215702
12 *362:A1 *361:B1 9.89906e-05
13 *362:A1 *362:A2 1.09903e-05
14 *362:A1 *135:17 4.07371e-05
15 *362:A1 *135:28 1.30878e-05
16 *118:8 *121:12 0.000163102
17 *118:37 *361:B1 0.000144501
18 *118:37 *135:8 1.21972e-05
19 *354:A2 *354:C1 0.000142636
20 *354:B1 *354:C1 9.65021e-05
21 *355:A2 *355:C1 6.68064e-05
22 *362:B1 *362:A1 0.000155598
23 *364:A3 *354:C1 0.000139072
24 *364:A3 *355:C1 2.64616e-05
25 *364:B1 *355:C1 5.79559e-05
26 *16:11 *354:C1 2.79653e-05
27 *16:11 *118:8 3.18672e-05
28 *72:19 *354:C1 3.70094e-05
29 *89:10 *118:8 8.57577e-05
*RES
1 *401:X *118:4 23 
2 *118:4 *118:8 17.2579 
3 *118:8 *354:C1 42.5364 
4 *118:8 *118:21 15 
5 *118:21 *364:A2 23 
6 *118:21 *355:C1 25.5479 
7 *118:4 *118:37 2.05071 
8 *118:37 *361:A1 23 
9 *118:37 *362:A1 28.2821 
*END

*D_NET *119 0.00219423
*CONN
*I *374:A1 I *D sky130_fd_sc_hd__o211a_1
*I *380:A1 I *D sky130_fd_sc_hd__a21o_1
*I *373:A1 I *D sky130_fd_sc_hd__a21o_1
*I *365:A I *D sky130_fd_sc_hd__xnor2_1
*I *402:X O *D sky130_fd_sc_hd__buf_1
*CAP
1 *374:A1 0.000147622
2 *380:A1 0
3 *373:A1 5.40376e-05
4 *365:A 0.000145764
5 *402:X 0
6 *119:23 0.00028762
7 *119:8 0.000494611
8 *119:4 0.000262886
9 *373:A1 *373:A2 3.22051e-05
10 *373:A1 *373:B1 0.000144501
11 *374:A1 *367:A 1.59071e-05
12 *374:A1 *374:A2 1.12349e-05
13 *374:A1 *136:36 3.0538e-05
14 *119:23 *122:16 0
15 *365:B *365:A 2.95423e-05
16 *365:B *119:23 8.25305e-05
17 *367:B *374:A1 6.11155e-05
18 *17:19 *365:A 2.83509e-05
19 *17:19 *119:8 4.67247e-05
20 *43:56 *373:A1 4.36619e-05
21 *43:56 *119:23 3.6921e-05
22 *90:6 *374:A1 0.000221827
23 *90:6 *119:8 1.66293e-05
*RES
1 *402:X *119:4 23 
2 *119:4 *119:8 2.77571 
3 *119:8 *365:A 25.5479 
4 *119:8 *119:23 33.6664 
5 *119:23 *373:A1 25.0714 
6 *119:23 *380:A1 23 
7 *119:4 *374:A1 26.8529 
*END

*D_NET *120 0.00201237
*CONN
*I *378:A I *D sky130_fd_sc_hd__nor2_1
*I *376:A I *D sky130_fd_sc_hd__and2_1
*I *403:X O *D sky130_fd_sc_hd__clkbuf_1
*CAP
1 *378:A 0.000258431
2 *376:A 0
3 *403:X 0.000120385
4 *120:14 0.000313736
5 *120:6 0.000692552
6 *120:14 *137:8 5.56356e-05
7 *379:A *378:A 2.93335e-05
8 *379:B *378:A 0.000245221
9 *383:B *120:14 9.38052e-05
10 *30:10 *378:A 0.000100069
11 *30:10 *120:14 2.56281e-05
12 *31:10 *378:A 6.58415e-06
13 *31:10 *120:6 3.25066e-05
14 *31:10 *120:14 3.84822e-05
*RES
1 *403:X *120:6 25.0507 
2 *120:6 *120:14 36.7529 
3 *120:14 *376:A 23 
4 *120:6 *378:A 28.9036 
*END

*D_NET *121 0.0156658
*CONN
*I *306:B I *D sky130_fd_sc_hd__or2_1
*I *330:A1 I *D sky130_fd_sc_hd__a211o_1
*I *321:A1 I *D sky130_fd_sc_hd__a211o_1
*I *312:B_N I *D sky130_fd_sc_hd__or2b_1
*I *373:B1 I *D sky130_fd_sc_hd__a21o_1
*I *361:B1 I *D sky130_fd_sc_hd__a21o_1
*I *351:B1 I *D sky130_fd_sc_hd__a21o_1
*I *342:B1 I *D sky130_fd_sc_hd__a21o_1
*I *404:X O *D sky130_fd_sc_hd__clkbuf_2
*CAP
1 *306:B 0
2 *330:A1 0
3 *321:A1 0
4 *312:B_N 0
5 *373:B1 0.000307403
6 *361:B1 8.37695e-05
7 *351:B1 0
8 *342:B1 0
9 *404:X 0.000127911
10 *121:112 0.000673855
11 *121:91 0.000979511
12 *121:81 0.000456163
13 *121:74 0.000192838
14 *121:70 0.0012625
15 *121:28 0.000229426
16 *121:22 0.00133374
17 *121:12 0.00160371
18 *121:10 0.000713753
19 *121:8 0.000437996
20 *121:6 0.00134808
21 *361:B1 *361:A2 3.23857e-06
22 *361:B1 *135:8 5.40337e-05
23 *361:B1 *135:17 6.98878e-05
24 *373:B1 *366:A 0
25 *373:B1 *373:A2 3.26371e-05
26 *373:B1 *122:16 0
27 *121:12 *122:36 2.62187e-05
28 *121:22 *347:A 5.5792e-05
29 *121:22 *122:36 3.50862e-06
30 *121:22 *134:12 0.000231039
31 *121:28 *122:53 7.00705e-05
32 *121:70 *356:A 3.77416e-05
33 *121:81 *312:A 3.05276e-05
34 *121:91 *122:94 0.000164019
35 *121:112 *129:10 5.79559e-05
36 *121:112 *132:23 1.13812e-05
37 *313:A *121:81 5.58003e-05
38 *321:A2 *121:91 1.8788e-05
39 *321:A2 *121:112 3.5538e-05
40 *322:A2 *121:112 1.37712e-05
41 *322:C1 *121:112 2.95423e-05
42 *325:A *121:112 5.56356e-05
43 *331:A2 *121:112 0
44 *345:A2 *121:12 0
45 *346:B *121:12 7.17279e-05
46 *346:B *121:22 7.97499e-05
47 *354:C1 *121:12 0.000215702
48 *355:A3 *121:12 0
49 *362:A1 *361:B1 9.89906e-05
50 *363:A1 *121:70 2.13733e-05
51 *363:A2 *121:70 0.000188927
52 *363:B1 *121:70 0.000147538
53 *373:A1 *373:B1 0.000144501
54 *389:CLK *121:22 5.56356e-05
55 *389:D *121:22 0.00014884
56 *36:15 *121:91 9.79925e-05
57 *36:17 *121:91 6.00824e-05
58 *36:21 *121:70 0
59 *36:21 *121:91 4.41821e-06
60 *36:96 *121:91 0.0003692
61 *36:113 *121:91 2.87195e-05
62 *36:113 *121:112 0.000204907
63 *37:16 *121:91 0.000356727
64 *37:16 *121:112 8.47465e-06
65 *43:56 *373:B1 0.000187335
66 *43:56 *121:10 0.000138763
67 *43:103 *121:12 4.83778e-05
68 *46:8 *121:112 2.14404e-05
69 *59:10 *121:112 9.6826e-05
70 *60:10 *121:112 0.000165809
71 *63:28 *121:22 0.000228758
72 *72:19 *121:12 0.000129124
73 *73:8 *121:22 4.77213e-05
74 *73:21 *121:22 0.000144825
75 *74:8 *121:22 0.000108896
76 *80:14 *373:B1 0
77 *80:14 *121:10 0
78 *80:14 *121:70 5.3304e-05
79 *81:27 *121:70 7.87147e-05
80 *82:46 *121:70 8.06804e-06
81 *86:10 *121:70 1.46784e-05
82 *89:10 *121:10 3.2865e-05
83 *89:10 *121:12 1.39826e-05
84 *95:33 *121:70 0
85 *106:10 *121:28 0.000187765
86 *111:35 *121:28 0
87 *114:16 *121:112 9.86777e-06
88 *114:20 *121:112 5.1986e-05
89 *114:39 *121:112 0.000477783
90 *118:8 *121:12 0.000163102
91 *118:37 *361:B1 0.000144501
*RES
1 *404:X *121:6 24.5743 
2 *121:6 *121:8 15 
3 *121:8 *121:10 2.96214 
4 *121:10 *121:12 11.0614 
5 *121:12 *121:22 36.1493 
6 *121:22 *121:28 35.075 
7 *121:28 *342:B1 23 
8 *121:12 *351:B1 38 
9 *121:10 *361:B1 41.0243 
10 *121:8 *373:B1 43.9864 
11 *121:6 *121:70 35.9214 
12 *121:70 *121:74 15.6214 
13 *121:74 *312:B_N 23 
14 *121:74 *121:81 3.00357 
15 *121:81 *121:91 39.0936 
16 *121:91 *321:A1 23 
17 *121:91 *121:112 46.4057 
18 *121:112 *330:A1 23 
19 *121:81 *306:B 23 
*END

*D_NET *122 0.0209658
*CONN
*I *309:A0 I *D sky130_fd_sc_hd__mux2_1
*I *384:B2 I *D sky130_fd_sc_hd__o221a_1
*I *383:A I *D sky130_fd_sc_hd__nand2_1
*I *374:C1 I *D sky130_fd_sc_hd__o211a_1
*I *362:C1 I *D sky130_fd_sc_hd__o211a_1
*I *305:A I *D sky130_fd_sc_hd__inv_2
*I *312:A I *D sky130_fd_sc_hd__or2b_1
*I *329:B1 I *D sky130_fd_sc_hd__a21o_1
*I *343:C1 I *D sky130_fd_sc_hd__o211a_1
*I *352:C1 I *D sky130_fd_sc_hd__o211a_1
*I *405:X O *D sky130_fd_sc_hd__buf_2
*CAP
1 *309:A0 0.000701143
2 *384:B2 0
3 *383:A 0.000373165
4 *374:C1 0
5 *362:C1 0
6 *305:A 0
7 *312:A 7.61645e-05
8 *329:B1 4.92697e-05
9 *343:C1 0
10 *352:C1 0
11 *405:X 0.000359474
12 *122:136 0.00136096
13 *122:94 0.00016666
14 *122:81 0.000734112
15 *122:66 0.000938354
16 *122:53 0.000485662
17 *122:47 0.00149725
18 *122:45 0.00168869
19 *122:36 7.5647e-05
20 *122:30 0.000748608
21 *122:22 0.00216133
22 *122:16 0.000972029
23 *122:10 0.000786215
24 *122:8 0.000600828
25 *122:6 0.00101929
26 *309:A0 *131:10 5.81185e-05
27 *329:B1 *129:10 9.79925e-05
28 *383:A *137:25 0.000232123
29 *122:10 *136:10 0.000102007
30 *122:10 *136:14 3.90213e-05
31 *122:16 *136:14 0.000217543
32 *122:30 *351:A2 0.000144917
33 *122:30 *357:B1 0.000114794
34 *122:30 *134:45 9.13591e-05
35 *122:36 *134:25 3.36312e-06
36 *122:53 *133:14 0.000141352
37 *122:53 *133:36 3.40233e-05
38 *122:66 *132:23 0.000178339
39 *313:A *312:A 6.17437e-06
40 *313:A *122:81 0.000121803
41 *333:A1 *122:53 1.02387e-05
42 *334:A_N *122:53 4.07715e-05
43 *353:A1 *122:53 4.36552e-05
44 *373:B1 *122:16 0
45 *379:B *383:A 7.9636e-05
46 *382:B *383:A 5.3304e-05
47 *384:A1 *309:A0 0.00077203
48 *384:A2 *309:A0 2.37158e-05
49 *384:B1 *309:A0 3.86731e-05
50 *392:D *309:A0 0.00017695
51 *19:11 *122:66 2.14599e-05
52 *32:10 *383:A 0
53 *32:10 *122:10 0
54 *35:8 *309:A0 7.64079e-06
55 *35:8 *383:A 5.58003e-05
56 *36:21 *122:81 0.00014216
57 *36:21 *122:94 1.90253e-05
58 *36:96 *122:94 8.16757e-06
59 *37:65 *309:A0 3.7122e-06
60 *43:8 *122:81 1.71301e-05
61 *43:12 *122:81 2.462e-05
62 *43:14 *122:47 2.95729e-05
63 *43:14 *122:53 6.95207e-05
64 *43:14 *122:81 2.86161e-05
65 *43:56 *122:16 0
66 *54:10 *122:66 8.36198e-05
67 *58:10 *329:B1 3.7122e-06
68 *63:10 *122:53 0.000163256
69 *79:10 *122:30 0.000232794
70 *80:14 *122:16 0.000201183
71 *80:14 *122:22 2.42807e-05
72 *81:27 *122:16 0
73 *82:14 *122:16 0
74 *82:46 *122:16 0
75 *82:46 *122:30 0.000154535
76 *83:27 *122:30 9.51551e-05
77 *83:27 *122:36 0
78 *90:12 *122:16 8.90674e-06
79 *95:12 *122:30 0.000658936
80 *100:10 *383:A 8.57577e-05
81 *101:16 *383:A 0
82 *101:16 *122:10 0
83 *101:16 *122:136 0.000242542
84 *111:16 *122:53 0.000220592
85 *114:53 *122:81 0.000326502
86 *115:16 *122:66 1.0092e-05
87 *116:10 *122:30 4.70975e-05
88 *116:63 *122:53 3.20504e-05
89 *116:72 *122:53 3.62323e-05
90 *119:23 *122:16 0
91 *121:12 *122:36 2.62187e-05
92 *121:22 *122:36 3.50862e-06
93 *121:28 *122:53 7.00705e-05
94 *121:81 *312:A 3.05276e-05
95 *121:91 *122:94 0.000164019
*RES
1 *405:X *122:6 27.4329 
2 *122:6 *122:8 15 
3 *122:8 *122:10 4.72286 
4 *122:10 *122:16 10.6679 
5 *122:16 *122:22 8.97814 
6 *122:22 *122:30 39.0432 
7 *122:30 *122:36 31.2014 
8 *122:36 *352:C1 23 
9 *122:22 *122:45 10.2885 
10 *122:45 *122:47 1.72964 
11 *122:47 *122:53 27.18 
12 *122:53 *343:C1 23 
13 *122:47 *122:66 41.5793 
14 *122:66 *329:B1 39.0979 
15 *122:45 *122:81 25.5954 
16 *122:81 *312:A 24.0979 
17 *122:81 *122:94 33.6664 
18 *122:94 *305:A 23 
19 *122:16 *362:C1 38 
20 *122:10 *374:C1 38 
21 *122:8 *383:A 46.7 
22 *122:6 *122:136 41.3929 
23 *122:136 *384:B2 23 
24 *122:136 *309:A0 38.1421 
*END

*D_NET *123 0.00139823
*CONN
*I *414:A I *D sky130_fd_sc_hd__clkbuf_4
*I *385:Q O *D sky130_fd_sc_hd__dfxtp_1
*CAP
1 *414:A 4.34709e-05
2 *385:Q 0.000603468
3 *123:10 0.000646939
4 *20:8 *414:A 1.23293e-05
5 *102:10 *123:10 9.20193e-05
*RES
1 *385:Q *123:10 46.7 
2 *123:10 *414:A 38.6214 
*END

*D_NET *124 0.00355665
*CONN
*I *321:B1 I *D sky130_fd_sc_hd__a211o_1
*I *316:B1 I *D sky130_fd_sc_hd__o21a_1
*I *317:A I *D sky130_fd_sc_hd__or3_1
*I *406:X O *D sky130_fd_sc_hd__buf_1
*CAP
1 *321:B1 0
2 *316:B1 1.7257e-05
3 *317:A 0
4 *406:X 0.000567322
5 *124:40 0.000389506
6 *124:23 0.000524924
7 *124:14 0.000258448
8 *124:10 0.000707609
9 *124:40 *315:A1 5.79559e-05
10 *315:B1 *124:40 5.56279e-05
11 *317:B *124:14 5.58003e-05
12 *317:B *124:23 9.77922e-06
13 *317:C *316:B1 5.31974e-06
14 *317:C *124:23 0.000131701
15 *317:C *124:40 2.56967e-05
16 *318:A_N *124:10 0.000129647
17 *319:A *124:10 0.000275241
18 *323:A1 *124:10 8.78864e-05
19 *323:A2 *124:14 5.82853e-05
20 *323:A2 *124:23 1.1258e-05
21 *323:A2 *124:40 0
22 *41:10 *124:10 1.13812e-05
23 *45:6 *124:40 5.61255e-06
24 *46:16 *124:10 3.67392e-05
25 *110:23 *124:40 0.000133649
*RES
1 *406:X *124:10 47.0729 
2 *124:10 *124:14 18.0036 
3 *124:14 *317:A 23 
4 *124:14 *124:23 2.9 
5 *124:23 *316:B1 23.4971 
6 *124:23 *124:40 35.8829 
7 *124:40 *321:B1 23 
*END

*D_NET *125 0.000506013
*CONN
*I *415:A I *D sky130_fd_sc_hd__buf_2
*I *386:Q O *D sky130_fd_sc_hd__dfxtp_1
*CAP
1 *415:A 4.66792e-05
2 *386:Q 0.000206327
3 *125:10 0.000253006
*RES
1 *386:Q *125:10 41.0036 
2 *125:10 *415:A 38.6214 
*END

*D_NET *126 0.00109002
*CONN
*I *416:A I *D sky130_fd_sc_hd__buf_2
*I *387:Q O *D sky130_fd_sc_hd__dfxtp_1
*CAP
1 *416:A 9.24799e-05
2 *387:Q 0.000382707
3 *126:10 0.000475187
4 result[2] *126:10 0
5 *13:13 *126:10 0.000139647
*RES
1 *387:Q *126:10 44.6493 
2 *126:10 *416:A 39.5743 
*END

*D_NET *127 0.000295484
*CONN
*I *417:A I *D sky130_fd_sc_hd__buf_2
*I *388:Q O *D sky130_fd_sc_hd__dfxtp_1
*CAP
1 *417:A 0.000147742
2 *388:Q 0.000147742
*RES
1 *388:Q *417:A 48.9 
*END

*D_NET *128 0.00050995
*CONN
*I *418:A I *D sky130_fd_sc_hd__buf_2
*I *389:Q O *D sky130_fd_sc_hd__dfxtp_1
*CAP
1 *418:A 0.000110096
2 *389:Q 0.000118619
3 *128:8 0.000228714
4 *128:8 *133:10 2.3178e-05
5 result[4] *418:A 2.93431e-05
*RES
1 *389:Q *128:8 40.2579 
2 *128:8 *418:A 40.0507 
*END

*D_NET *129 0.003417
*CONN
*I *419:A I *D sky130_fd_sc_hd__buf_2
*I *390:Q O *D sky130_fd_sc_hd__dfxtp_1
*CAP
1 *419:A 0
2 *390:Q 0.000754099
3 *129:10 0.000754099
4 *325:A *129:10 7.58405e-05
5 *329:A1 *129:10 0.000401067
6 *329:A2 *129:10 0.000142678
7 *329:B1 *129:10 9.79925e-05
8 *330:C1 *129:10 0.000318493
9 *43:44 *129:10 4.00255e-05
10 *54:10 *129:10 0.000620879
11 *58:10 *129:10 6.63159e-06
12 *115:16 *129:10 0.000147237
13 *121:112 *129:10 5.79559e-05
*RES
1 *390:Q *129:10 42.2436 
2 *129:10 *419:A 23 
*END

*D_NET *130 0.00149873
*CONN
*I *420:A I *D sky130_fd_sc_hd__clkbuf_4
*I *391:Q O *D sky130_fd_sc_hd__dfxtp_1
*CAP
1 *420:A 0.000256245
2 *391:Q 0.000315898
3 *130:10 0.000572143
4 *130:10 *131:10 5.28551e-05
5 *26:8 *420:A 7.98211e-05
6 *27:8 *420:A 3.7122e-06
7 *39:10 *130:10 0.000162263
8 *112:8 *130:10 5.5792e-05
*RES
1 *391:Q *130:10 43.3443 
2 *130:10 *420:A 42.9093 
*END

*D_NET *131 0.000341018
*CONN
*I *421:A I *D sky130_fd_sc_hd__clkbuf_4
*I *392:Q O *D sky130_fd_sc_hd__dfxtp_1
*CAP
1 *421:A 0
2 *392:Q 0.000115022
3 *131:10 0.000115022
4 *309:A0 *131:10 5.81185e-05
5 *130:10 *131:10 5.28551e-05
*RES
1 *392:Q *131:10 40.175 
2 *131:10 *421:A 38 
*END

*D_NET *132 0.00288756
*CONN
*I *339:A I *D sky130_fd_sc_hd__and2_1
*I *330:B1 I *D sky130_fd_sc_hd__a211o_1
*I *326:A I *D sky130_fd_sc_hd__xor2_1
*I *407:X O *D sky130_fd_sc_hd__buf_1
*CAP
1 *339:A 0
2 *330:B1 0
3 *326:A 0
4 *407:X 0.000347673
5 *132:34 9.09906e-05
6 *132:23 0.000345989
7 *132:10 0.000784653
8 *326:B *132:23 5.3304e-05
9 *327:A *132:10 2.69729e-05
10 *328:B *132:10 0.000163532
11 *19:11 *132:34 0.000245574
12 *52:42 *132:10 5.56356e-05
13 *55:8 *132:10 0.000275317
14 *60:10 *132:23 0.000186916
15 *111:53 *132:34 0.000121282
16 *121:112 *132:23 1.13812e-05
17 *122:66 *132:23 0.000178339
*RES
1 *407:X *132:10 31.2857 
2 *132:10 *326:A 23 
3 *132:10 *132:23 37.5193 
4 *132:23 *330:B1 23 
5 *132:10 *132:34 33.3143 
6 *132:34 *339:A 23 
*END

*D_NET *133 0.00333769
*CONN
*I *335:B1 I *D sky130_fd_sc_hd__a21o_1
*I *342:A2 I *D sky130_fd_sc_hd__a21o_1
*I *337:A I *D sky130_fd_sc_hd__and3_1
*I *343:A2 I *D sky130_fd_sc_hd__o211a_1
*I *408:X O *D sky130_fd_sc_hd__buf_1
*CAP
1 *335:B1 2.79005e-05
2 *342:A2 0.000145525
3 *337:A 0.00011296
4 *343:A2 2.30556e-05
5 *408:X 0.000247028
6 *133:36 0.000323751
7 *133:14 0.000263989
8 *133:10 0.000525328
9 *343:B1 *133:14 5.79559e-05
10 *353:A1 *133:14 5.3304e-05
11 *408:A *133:10 5.37348e-06
12 *36:44 *133:10 2.45092e-05
13 *36:44 *133:36 4.44801e-05
14 *36:54 *133:10 0.000193024
15 *63:10 *133:10 0.000165394
16 *63:10 *133:36 0.000178512
17 *70:10 *335:B1 2.08366e-05
18 *70:10 *342:A2 9.91548e-05
19 *75:18 *335:B1 8.47522e-05
20 *75:18 *342:A2 0.000201988
21 *111:16 *337:A 0.000131498
22 *111:16 *133:14 4.19779e-05
23 *116:63 *133:36 0.000166837
24 *122:53 *133:14 0.000141352
25 *122:53 *133:36 3.40233e-05
26 *128:8 *133:10 2.3178e-05
*RES
1 *408:X *133:10 43.4686 
2 *133:10 *133:14 18.0036 
3 *133:14 *343:A2 23.4971 
4 *133:14 *337:A 25.5271 
5 *133:10 *133:36 19.0807 
6 *133:36 *342:A2 26.9771 
7 *133:36 *335:B1 24.3257 
*END

*D_NET *134 0.0035564
*CONN
*I *359:B2 I *D sky130_fd_sc_hd__a32o_1
*I *369:A1 I *D sky130_fd_sc_hd__a21bo_1
*I *351:A2 I *D sky130_fd_sc_hd__a21o_1
*I *352:A2 I *D sky130_fd_sc_hd__o211a_1
*I *347:A I *D sky130_fd_sc_hd__xor2_1
*I *409:X O *D sky130_fd_sc_hd__dlymetal6s2s_1
*CAP
1 *359:B2 6.11966e-05
2 *369:A1 0
3 *351:A2 0.000254527
4 *352:A2 0
5 *347:A 1.11013e-05
6 *409:X 0.0001768
7 *134:45 0.000199845
8 *134:32 0.00040527
9 *134:25 0.000185111
10 *134:12 0.000226844
11 *134:8 0.000219525
12 *352:A1 *351:A2 6.76167e-05
13 *352:A1 *134:32 1.12796e-05
14 *352:A1 *134:45 2.93431e-05
15 *352:B1 *351:A2 0.000143421
16 *352:B1 *134:32 3.86731e-05
17 *359:B1 *359:B2 0.000183544
18 *73:21 *347:A 5.82853e-05
19 *73:21 *134:12 0.000219922
20 *79:10 *359:B2 0.000230718
21 *79:10 *134:45 0.000232794
22 *83:27 *134:45 5.56279e-05
23 *117:25 *351:A2 1.84831e-05
24 *121:22 *347:A 5.5792e-05
25 *121:22 *134:12 0.000231039
26 *122:30 *351:A2 0.000144917
27 *122:30 *134:45 9.13591e-05
28 *122:36 *134:25 3.36312e-06
*RES
1 *409:X *134:8 40.9621 
2 *134:8 *134:12 17.5271 
3 *134:12 *347:A 23.6214 
4 *134:12 *134:25 32.61 
5 *134:25 *352:A2 23 
6 *134:25 *134:32 0.497143 
7 *134:32 *351:A2 28.7793 
8 *134:32 *134:45 4.43286 
9 *134:45 *369:A1 23 
10 *134:45 *359:B2 25.5271 
*END

*D_NET *135 0.00419593
*CONN
*I *356:A I *D sky130_fd_sc_hd__nor3_1
*I *357:B1 I *D sky130_fd_sc_hd__o21ai_1
*I *362:A2 I *D sky130_fd_sc_hd__o211a_1
*I *361:A2 I *D sky130_fd_sc_hd__a21o_1
*I *410:X O *D sky130_fd_sc_hd__buf_1
*CAP
1 *356:A 0.000230528
2 *357:B1 0.000254488
3 *362:A2 1.94674e-05
4 *361:A2 1.99235e-05
5 *410:X 0.000164739
6 *135:28 0.000532565
7 *135:17 0.000172
8 *135:8 0.000289647
9 *361:B1 *361:A2 3.23857e-06
10 *361:B1 *135:8 5.40337e-05
11 *361:B1 *135:17 6.98878e-05
12 *362:A1 *362:A2 1.09903e-05
13 *362:A1 *135:17 4.07371e-05
14 *362:A1 *135:28 1.30878e-05
15 *362:B1 *362:A2 1.09903e-05
16 *362:B1 *135:17 7.87243e-05
17 *43:44 *135:17 0.00030317
18 *43:44 *135:28 9.64943e-05
19 *43:56 *135:8 0.000143423
20 *43:56 *135:17 0.000100061
21 *60:20 *357:B1 7.72342e-05
22 *80:14 *356:A 2.64616e-05
23 *81:12 *357:B1 5.40624e-05
24 *81:27 *356:A 0.000347796
25 *81:27 *357:B1 0.000158463
26 *82:6 *356:A 0.000146822
27 *82:46 *356:A 0.000285612
28 *82:46 *357:B1 0.000192177
29 *83:27 *357:B1 0.000134375
30 *118:37 *135:8 1.21972e-05
31 *121:70 *356:A 3.77416e-05
32 *122:30 *357:B1 0.000114794
*RES
1 *410:X *135:8 26.5007 
2 *135:8 *361:A2 23.4971 
3 *135:8 *135:17 4.43286 
4 *135:17 *362:A2 23.4971 
5 *135:17 *135:28 16.0979 
6 *135:28 *357:B1 45.3536 
7 *135:28 *356:A 44.7943 
*END

*D_NET *136 0.00305887
*CONN
*I *367:A I *D sky130_fd_sc_hd__or2_1
*I *374:A2 I *D sky130_fd_sc_hd__o211a_1
*I *366:A I *D sky130_fd_sc_hd__nand2_1
*I *373:A2 I *D sky130_fd_sc_hd__a21o_1
*I *411:X O *D sky130_fd_sc_hd__buf_1
*CAP
1 *367:A 0.00021097
2 *374:A2 2.07933e-05
3 *366:A 0.000140723
4 *373:A2 0.000120603
5 *411:X 0.000469121
6 *136:36 0.000301259
7 *136:14 0.000361754
8 *136:10 0.000639044
9 *367:B *367:A 5.26016e-05
10 *373:A1 *373:A2 3.22051e-05
11 *373:B1 *366:A 0
12 *373:B1 *373:A2 3.26371e-05
13 *374:A1 *367:A 1.59071e-05
14 *374:A1 *374:A2 1.12349e-05
15 *374:A1 *136:36 3.0538e-05
16 *43:56 *373:A2 3.85196e-05
17 *90:12 *136:14 2.56377e-05
18 *91:6 *366:A 3.22051e-05
19 *98:8 *136:14 0.000164545
20 *122:10 *136:10 0.000102007
21 *122:10 *136:14 3.90213e-05
22 *122:16 *136:14 0.000217543
*RES
1 *411:X *136:10 44.4629 
2 *136:10 *136:14 18.3143 
3 *136:14 *373:A2 25.5479 
4 *136:14 *366:A 25.5479 
5 *136:10 *136:36 16.0979 
6 *136:36 *374:A2 23.4971 
7 *136:36 *367:A 26.48 
*END

*D_NET *137 0.00162697
*CONN
*I *378:B I *D sky130_fd_sc_hd__nor2_1
*I *376:B I *D sky130_fd_sc_hd__and2_1
*I *412:X O *D sky130_fd_sc_hd__clkbuf_1
*CAP
1 *378:B 0
2 *376:B 0
3 *412:X 0.000249153
4 *137:25 0.000348009
5 *137:8 0.000597162
6 *379:B *137:25 4.81613e-05
7 *383:A *137:25 0.000232123
8 *383:B *137:25 8.87281e-05
9 *30:10 *137:25 4.2812e-06
10 *100:10 *137:25 3.7122e-06
11 *120:14 *137:8 5.56356e-05
*RES
1 *412:X *137:8 27.3293 
2 *137:8 *376:B 23 
3 *137:8 *137:25 37.6436 
4 *137:25 *378:B 23 
*END

*D_NET *138 0.00677682
*CONN
*I *311:B_N I *D sky130_fd_sc_hd__or2b_1
*I *307:A2 I *D sky130_fd_sc_hd__o21a_1
*I *315:A1 I *D sky130_fd_sc_hd__a21oi_1
*I *314:A I *D sky130_fd_sc_hd__and3_1
*I *332:A I *D sky130_fd_sc_hd__or3_2
*I *324:A1 I *D sky130_fd_sc_hd__o21a_1
*I *308:B I *D sky130_fd_sc_hd__nand2_1
*I *413:X O *D sky130_fd_sc_hd__dlymetal6s2s_1
*CAP
1 *311:B_N 3.52973e-05
2 *307:A2 3.63934e-05
3 *315:A1 7.59333e-05
4 *314:A 0.000199051
5 *332:A 0.000119111
6 *324:A1 0.000134307
7 *308:B 9.05038e-05
8 *413:X 0.000413577
9 *138:77 9.5173e-05
10 *138:39 0.00033753
11 *138:35 0.000394262
12 *138:33 0.000395179
13 *138:20 0.000566018
14 *138:10 0.000704427
15 *308:A *307:A2 5.3304e-05
16 *308:A *308:B 3.26893e-05
17 *308:A *138:20 0.000271906
18 *308:A *138:77 0
19 *310:A *138:10 0.000453138
20 *314:C *314:A 0.000126101
21 *315:A2 *315:A1 9.65021e-05
22 *315:A2 *138:35 4.53683e-05
23 *332:C *324:A1 0
24 *36:38 *324:A1 5.79715e-05
25 *36:38 *138:39 6.48049e-05
26 *37:40 *138:33 0
27 *38:10 *308:B 3.34129e-05
28 *43:8 *138:35 8.80275e-05
29 *43:8 *138:39 1.58805e-05
30 *43:10 *138:39 3.3746e-05
31 *44:10 *314:A 3.53051e-05
32 *60:10 *332:A 5.68958e-05
33 *102:10 *138:10 5.82853e-05
34 *110:12 *138:39 0.000141888
35 *110:23 *138:33 0.000344447
36 *110:23 *138:35 0.000298497
37 *110:23 *138:39 2.55642e-05
38 *112:8 *138:10 4.96303e-05
39 *112:34 *138:10 0.000166395
40 *113:10 *138:10 0.000193858
41 *113:10 *138:20 7.98198e-05
42 *113:16 *307:A2 1.24376e-05
43 *113:16 *311:B_N 4.08664e-05
44 *114:39 *138:20 0
45 *114:45 *324:A1 0.000181131
46 *114:45 *332:A 5.37094e-05
47 *114:53 *314:A 1.05235e-05
48 *124:40 *315:A1 5.79559e-05
*RES
1 *413:X *138:10 49.3307 
2 *138:10 *138:20 19.9714 
3 *138:20 *308:B 24.9471 
4 *138:20 *138:33 19.7229 
5 *138:33 *138:35 4.01857 
6 *138:35 *138:39 17.2579 
7 *138:39 *324:A1 26.0243 
8 *138:39 *332:A 25.5271 
9 *138:35 *314:A 41.48 
10 *138:33 *315:A1 39.5743 
11 *138:10 *138:77 15.4971 
12 *138:77 *307:A2 23.6214 
13 *138:77 *311:B_N 23.6214 
*END
