*SPEF "ieee 1481-1999"
*DESIGN "alu"
*DATE "11:51:51 Wednesday June 18, 2025"
*VENDOR "The OpenROAD Project"
*PROGRAM "OpenROAD"
*VERSION "b16bda7e82721d10566ff7e2b68f1ff0be9f9e38"
*DESIGN_FLOW "NAME_SCOPE LOCAL" "PIN_CAP NONE"
*DIVIDER /
*DELIMITER :
*BUS_DELIMITER []
*T_UNIT 1 NS
*C_UNIT 1 PF
*R_UNIT 1 OHM
*L_UNIT 1 HENRY

*NAME_MAP
*3 a[0]
*4 a[1]
*5 a[2]
*6 a[3]
*7 a[4]
*8 a[5]
*9 a[6]
*10 a[7]
*11 b[0]
*12 b[1]
*13 b[2]
*14 b[3]
*15 b[4]
*16 b[5]
*17 b[6]
*18 b[7]
*19 clk
*20 result[0]
*21 result[1]
*22 result[2]
*23 result[3]
*24 result[4]
*25 result[5]
*26 result[6]
*27 result[7]
*28 sel[0]
*29 sel[1]
*30 _000_
*31 _001_
*32 _002_
*33 _003_
*34 _004_
*35 _005_
*36 _006_
*37 _007_
*38 _008_
*39 _009_
*40 _010_
*41 _011_
*42 _012_
*43 _013_
*44 _014_
*45 _015_
*46 _016_
*47 _017_
*48 _018_
*49 _019_
*50 _020_
*51 _021_
*52 _022_
*53 _023_
*54 _024_
*55 _025_
*56 _026_
*57 _027_
*58 _028_
*59 _029_
*60 _030_
*61 _031_
*62 _032_
*63 _033_
*64 _034_
*65 _035_
*66 _036_
*67 _037_
*68 _038_
*69 _039_
*70 _040_
*71 _041_
*72 _042_
*73 _043_
*74 _044_
*75 _045_
*76 _046_
*77 _047_
*78 _048_
*79 _049_
*80 _050_
*81 _051_
*82 _052_
*83 _053_
*84 _054_
*85 _055_
*86 _056_
*87 _057_
*88 _058_
*89 _059_
*90 _060_
*91 _061_
*92 _062_
*93 _063_
*94 _064_
*95 _065_
*96 _066_
*97 _067_
*98 _068_
*99 _069_
*100 _070_
*101 _071_
*102 _072_
*103 _073_
*104 _074_
*105 _075_
*106 _076_
*107 _077_
*108 _078_
*109 _079_
*110 clknet_0_clk
*111 clknet_1_0__leaf_clk
*112 clknet_1_1__leaf_clk
*113 net1
*114 net10
*115 net11
*116 net12
*117 net13
*118 net14
*119 net15
*120 net16
*121 net17
*122 net18
*123 net19
*124 net2
*125 net20
*126 net21
*127 net22
*128 net23
*129 net24
*130 net25
*131 net26
*132 net3
*133 net4
*134 net5
*135 net6
*136 net7
*137 net8
*138 net9
*139 FILLER_0_0_15
*140 FILLER_0_0_27
*141 FILLER_0_0_3
*142 FILLER_0_0_39
*143 FILLER_0_0_51
*144 FILLER_0_0_55
*145 FILLER_0_0_57
*146 FILLER_0_0_63
*147 FILLER_0_0_75
*148 FILLER_0_0_83
*149 FILLER_0_0_85
*150 FILLER_0_10_18
*151 FILLER_0_10_25
*152 FILLER_0_10_29
*153 FILLER_0_10_38
*154 FILLER_0_10_42
*155 FILLER_0_10_46
*156 FILLER_0_10_54
*157 FILLER_0_10_6
*158 FILLER_0_10_71
*159 FILLER_0_10_83
*160 FILLER_0_10_85
*161 FILLER_0_11_19
*162 FILLER_0_11_31
*163 FILLER_0_11_43
*164 FILLER_0_11_51
*165 FILLER_0_11_69
*166 FILLER_0_11_7
*167 FILLER_0_12_15
*168 FILLER_0_12_27
*169 FILLER_0_12_29
*170 FILLER_0_12_48
*171 FILLER_0_12_6
*172 FILLER_0_12_73
*173 FILLER_0_12_85
*174 FILLER_0_13_3
*175 FILLER_0_13_46
*176 FILLER_0_13_89
*177 FILLER_0_14_16
*178 FILLER_0_14_29
*179 FILLER_0_14_41
*180 FILLER_0_14_51
*181 FILLER_0_14_55
*182 FILLER_0_14_6
*183 FILLER_0_14_72
*184 FILLER_0_14_85
*185 FILLER_0_1_11
*186 FILLER_0_1_19
*187 FILLER_0_1_27
*188 FILLER_0_1_3
*189 FILLER_0_1_37
*190 FILLER_0_1_57
*191 FILLER_0_1_63
*192 FILLER_0_1_80
*193 FILLER_0_1_88
*194 FILLER_0_2_3
*195 FILLER_0_2_43
*196 FILLER_0_2_85
*197 FILLER_0_3_16
*198 FILLER_0_3_24
*199 FILLER_0_3_3
*200 FILLER_0_3_32
*201 FILLER_0_3_36
*202 FILLER_0_3_88
*203 FILLER_0_3_9
*204 FILLER_0_4_13
*205 FILLER_0_4_20
*206 FILLER_0_4_29
*207 FILLER_0_4_41
*208 FILLER_0_4_49
*209 FILLER_0_4_66
*210 FILLER_0_4_72
*211 FILLER_0_4_78
*212 FILLER_0_4_85
*213 FILLER_0_5_20
*214 FILLER_0_5_3
*215 FILLER_0_5_36
*216 FILLER_0_5_48
*217 FILLER_0_5_57
*218 FILLER_0_5_69
*219 FILLER_0_5_86
*220 FILLER_0_6_25
*221 FILLER_0_6_29
*222 FILLER_0_6_33
*223 FILLER_0_6_50
*224 FILLER_0_6_58
*225 FILLER_0_6_69
*226 FILLER_0_6_76
*227 FILLER_0_6_85
*228 FILLER_0_6_9
*229 FILLER_0_7_19
*230 FILLER_0_7_31
*231 FILLER_0_7_39
*232 FILLER_0_7_47
*233 FILLER_0_7_63
*234 FILLER_0_7_7
*235 FILLER_0_7_73
*236 FILLER_0_8_20
*237 FILLER_0_8_29
*238 FILLER_0_8_3
*239 FILLER_0_8_41
*240 FILLER_0_8_47
*241 FILLER_0_8_73
*242 FILLER_0_8_81
*243 FILLER_0_8_85
*244 FILLER_0_9_13
*245 FILLER_0_9_27
*246 FILLER_0_9_38
*247 FILLER_0_9_55
*248 FILLER_0_9_78
*249 FILLER_0_9_86
*250 PHY_EDGE_ROW_0_Left_15
*251 PHY_EDGE_ROW_0_Right_0
*252 PHY_EDGE_ROW_10_Left_25
*253 PHY_EDGE_ROW_10_Right_10
*254 PHY_EDGE_ROW_11_Left_26
*255 PHY_EDGE_ROW_11_Right_11
*256 PHY_EDGE_ROW_12_Left_27
*257 PHY_EDGE_ROW_12_Right_12
*258 PHY_EDGE_ROW_13_Left_28
*259 PHY_EDGE_ROW_13_Right_13
*260 PHY_EDGE_ROW_14_Left_29
*261 PHY_EDGE_ROW_14_Right_14
*262 PHY_EDGE_ROW_1_Left_16
*263 PHY_EDGE_ROW_1_Right_1
*264 PHY_EDGE_ROW_2_Left_17
*265 PHY_EDGE_ROW_2_Right_2
*266 PHY_EDGE_ROW_3_Left_18
*267 PHY_EDGE_ROW_3_Right_3
*268 PHY_EDGE_ROW_4_Left_19
*269 PHY_EDGE_ROW_4_Right_4
*270 PHY_EDGE_ROW_5_Left_20
*271 PHY_EDGE_ROW_5_Right_5
*272 PHY_EDGE_ROW_6_Left_21
*273 PHY_EDGE_ROW_6_Right_6
*274 PHY_EDGE_ROW_7_Left_22
*275 PHY_EDGE_ROW_7_Right_7
*276 PHY_EDGE_ROW_8_Left_23
*277 PHY_EDGE_ROW_8_Right_8
*278 PHY_EDGE_ROW_9_Left_24
*279 PHY_EDGE_ROW_9_Right_9
*280 TAP_TAPCELL_ROW_0_30
*281 TAP_TAPCELL_ROW_0_31
*282 TAP_TAPCELL_ROW_0_32
*283 TAP_TAPCELL_ROW_10_46
*284 TAP_TAPCELL_ROW_10_47
*285 TAP_TAPCELL_ROW_11_48
*286 TAP_TAPCELL_ROW_12_49
*287 TAP_TAPCELL_ROW_12_50
*288 TAP_TAPCELL_ROW_13_51
*289 TAP_TAPCELL_ROW_14_52
*290 TAP_TAPCELL_ROW_14_53
*291 TAP_TAPCELL_ROW_14_54
*292 TAP_TAPCELL_ROW_1_33
*293 TAP_TAPCELL_ROW_2_34
*294 TAP_TAPCELL_ROW_2_35
*295 TAP_TAPCELL_ROW_3_36
*296 TAP_TAPCELL_ROW_4_37
*297 TAP_TAPCELL_ROW_4_38
*298 TAP_TAPCELL_ROW_5_39
*299 TAP_TAPCELL_ROW_6_40
*300 TAP_TAPCELL_ROW_6_41
*301 TAP_TAPCELL_ROW_7_42
*302 TAP_TAPCELL_ROW_8_43
*303 TAP_TAPCELL_ROW_8_44
*304 TAP_TAPCELL_ROW_9_45
*305 _080_
*306 _081_
*307 _082_
*308 _083_
*309 _084_
*310 _085_
*311 _086_
*312 _087_
*313 _088_
*314 _089_
*315 _090_
*316 _091_
*317 _092_
*318 _093_
*319 _094_
*320 _095_
*321 _096_
*322 _097_
*323 _098_
*324 _099_
*325 _100_
*326 _101_
*327 _102_
*328 _103_
*329 _104_
*330 _105_
*331 _106_
*332 _107_
*333 _108_
*334 _109_
*335 _110_
*336 _111_
*337 _112_
*338 _113_
*339 _114_
*340 _115_
*341 _116_
*342 _117_
*343 _118_
*344 _119_
*345 _120_
*346 _121_
*347 _122_
*348 _123_
*349 _124_
*350 _125_
*351 _126_
*352 _127_
*353 _128_
*354 _129_
*355 _130_
*356 _131_
*357 _132_
*358 _133_
*359 _134_
*360 _135_
*361 _136_
*362 _137_
*363 _138_
*364 _139_
*365 _140_
*366 _141_
*367 _142_
*368 _143_
*369 _144_
*370 _145_
*371 _146_
*372 _147_
*373 _148_
*374 _149_
*375 _150_
*376 _151_
*377 _152_
*378 _153_
*379 _154_
*380 _155_
*381 _156_
*382 _157_
*383 _158_
*384 _159_
*385 _160_
*386 _161_
*387 _162_
*388 _163_
*389 _164_
*390 _165_
*391 _166_
*392 _167_
*393 clkbuf_0_clk
*394 clkbuf_1_0__f_clk
*395 clkbuf_1_1__f_clk
*396 input1
*397 input10
*398 input11
*399 input12
*400 input13
*401 input14
*402 input15
*403 input16
*404 input17
*405 input18
*406 input2
*407 input3
*408 input4
*409 input5
*410 input6
*411 input7
*412 input8
*413 input9
*414 output19
*415 output20
*416 output21
*417 output22
*418 output23
*419 output24
*420 output25
*421 output26

*PORTS
a[0] I
a[1] I
a[2] I
a[3] I
a[4] I
a[5] I
a[6] I
a[7] I
b[0] I
b[1] I
b[2] I
b[3] I
b[4] I
b[5] I
b[6] I
b[7] I
clk I
result[0] O
result[1] O
result[2] O
result[3] O
result[4] O
result[5] O
result[6] O
result[7] O
sel[0] I
sel[1] I

*D_NET *3 0.00124233
*CONN
*P a[0] I
*I *396:A I *D sky130_fd_sc_hd__buf_1
*CAP
1 a[0] 0.00061825
2 *396:A 0.00061825
3 *396:A result[0] 0
4 *396:A result[6] 0
5 *396:A *113:12 5.83121e-06
*RES
1 a[0] *396:A 14.235 
*END

*D_NET *4 0.00060579
*CONN
*P a[1] I
*I *406:A I *D sky130_fd_sc_hd__buf_1
*CAP
1 a[1] 0.00024736
2 *406:A 0.00024736
3 *406:A result[2] 5.4382e-05
4 *406:A *397:A 5.66885e-05
*RES
1 a[1] *406:A 6.54523 
*END

*D_NET *5 0.000637877
*CONN
*P a[2] I
*I *407:A I *D sky130_fd_sc_hd__buf_1
*CAP
1 a[2] 0.000254076
2 *407:A 0.000254076
3 *407:A result[5] 5.66885e-05
4 *407:A *393:A 7.30371e-05
*RES
1 a[2] *407:A 6.12177 
*END

*D_NET *6 0.000786797
*CONN
*P a[3] I
*I *408:A I *D sky130_fd_sc_hd__buf_1
*CAP
1 a[3] 0.000390936
2 *408:A 0.000390936
3 *408:A result[4] 0
4 *408:A *133:10 4.9253e-06
*RES
1 a[3] *408:A 10.35 
*END

*D_NET *7 0.000795069
*CONN
*P a[4] I
*I *409:A I *D sky130_fd_sc_hd__dlymetal6s2s_1
*CAP
1 a[4] 0.000397535
2 *409:A 0.000397535
3 *409:A *399:A 0
*RES
1 a[4] *409:A 10.35 
*END

*D_NET *8 0.00049165
*CONN
*P a[5] I
*I *410:A I *D sky130_fd_sc_hd__buf_1
*CAP
1 a[5] 0.000186847
2 *410:A 0.000186847
3 *410:A *401:A 9.54666e-05
4 *410:A *402:A 0
5 *410:A *404:A 2.24901e-05
*RES
1 a[5] *410:A 5.35677 
*END

*D_NET *9 0.000588985
*CONN
*P a[6] I
*I *411:A I *D sky130_fd_sc_hd__buf_1
*CAP
1 a[6] 0.000268994
2 *411:A 0.000268994
3 *411:A *381:B 0
4 *411:A *402:A 2.24901e-05
5 *411:A *405:A 2.85068e-05
*RES
1 a[6] *411:A 7.3443 
*END

*D_NET *10 0.000565673
*CONN
*P a[7] I
*I *412:A I *D sky130_fd_sc_hd__clkbuf_1
*CAP
1 a[7] 0.000257338
2 *412:A 0.000257338
3 *412:A *403:A 2.85068e-05
4 *412:A *405:A 2.24901e-05
*RES
1 a[7] *412:A 7.0893 
*END

*D_NET *11 0.000909323
*CONN
*P b[0] I
*I *413:A I *D sky130_fd_sc_hd__dlymetal6s2s_1
*CAP
1 b[0] 0.000392711
2 *413:A 0.000392711
3 *413:A result[1] 5.66885e-05
4 *413:A *397:A 6.7213e-05
*RES
1 b[0] *413:A 5.25463 
*END

*D_NET *12 0.00052586
*CONN
*P b[1] I
*I *397:A I *D sky130_fd_sc_hd__dlymetal6s2s_1
*CAP
1 b[1] 0.000200979
2 *397:A 0.000200979
3 *397:A result[2] 0
4 *406:A *397:A 5.66885e-05
5 *413:A *397:A 6.7213e-05
*RES
1 b[1] *397:A 5.35677 
*END

*D_NET *13 0.000772974
*CONN
*P b[2] I
*I *398:A I *D sky130_fd_sc_hd__buf_1
*CAP
1 b[2] 0.000268299
2 *398:A 0.000268299
3 *398:A result[2] 6.59989e-05
4 *398:A result[5] 5.35248e-05
5 *398:A *416:A 0.000116853
*RES
1 b[2] *398:A 7.56523 
*END

*D_NET *14 0.00108632
*CONN
*P b[3] I
*I *399:A I *D sky130_fd_sc_hd__dlymetal6s2s_1
*CAP
1 b[3] 0.000479874
2 *399:A 0.000479874
3 *399:A *116:12 0.00012657
4 *409:A *399:A 0
*RES
1 b[3] *399:A 12.075 
*END

*D_NET *15 0.000677617
*CONN
*P b[4] I
*I *400:A I *D sky130_fd_sc_hd__clkbuf_2
*CAP
1 b[4] 0.000323104
2 *400:A 0.000323104
3 *400:A *401:A 3.14094e-05
4 *400:A *117:8 0
5 *400:A *117:10 0
*RES
1 b[4] *400:A 7.9443 
*END

*D_NET *16 0.00121336
*CONN
*P b[5] I
*I *401:A I *D sky130_fd_sc_hd__buf_1
*CAP
1 b[5] 0.000366009
2 *401:A 0.000366009
3 *401:A *354:C1 2.57991e-05
4 *401:A *364:A3 5.94628e-05
5 *401:A *89:10 0.000114649
6 *401:A *117:54 0.000124518
7 *401:A *118:8 3.0042e-05
8 *400:A *401:A 3.14094e-05
9 *410:A *401:A 9.54666e-05
*RES
1 b[5] *401:A 8.08157 
*END

*D_NET *17 0.00126267
*CONN
*P b[6] I
*I *402:A I *D sky130_fd_sc_hd__buf_1
*CAP
1 b[6] 0.000409734
2 *402:A 0.000409734
3 *402:A *365:A 2.747e-05
4 *402:A *365:B 0.000132404
5 *402:A *381:B 0.000103671
6 *402:A *404:A 2.85068e-05
7 *402:A *405:A 0
8 *402:A *90:6 8.45001e-05
9 *402:A *119:8 4.41619e-05
10 *410:A *402:A 0
11 *411:A *402:A 2.24901e-05
*RES
1 b[6] *402:A 8.60657 
*END

*D_NET *18 0.000621894
*CONN
*P b[7] I
*I *403:A I *D sky130_fd_sc_hd__clkbuf_1
*CAP
1 b[7] 0.000277997
2 *403:A 0.000277997
3 *403:A *381:A 3.73935e-05
4 *403:A *405:A 0
5 *412:A *403:A 2.85068e-05
*RES
1 b[7] *403:A 6.37677 
*END

*D_NET *19 0.00355398
*CONN
*P clk I
*I *393:A I *D sky130_fd_sc_hd__clkbuf_16
*CAP
1 clk 0.00129727
2 *393:A 0.00129727
3 *393:A result[3] 7.30635e-05
4 *393:A *329:B1 2.0794e-05
5 *393:A *331:A2 0
6 *393:A *339:A 0.000201364
7 *393:A *339:B 0.000158748
8 *393:A *387:CLK 0.000178507
9 *393:A *52:10 0
10 *393:A *54:10 0.000133453
11 *393:A *60:12 0
12 *393:A *62:10 0
13 *393:A *115:10 4.40812e-05
14 *393:A *115:16 7.6387e-05
15 *407:A *393:A 7.30371e-05
*RES
1 clk *393:A 15.3306 
*END

*D_NET *20 0.00111645
*CONN
*P result[0] O
*I *414:X O *D sky130_fd_sc_hd__clkbuf_4
*CAP
1 result[0] 0.000550969
2 *414:X 0.000550969
3 result[0] *414:A 1.33205e-05
4 result[0] *113:12 1.18961e-06
5 *396:A result[0] 0
*RES
1 *414:X result[0] 12.57 
*END

*D_NET *21 0.000699537
*CONN
*P result[1] O
*I *415:X O *D sky130_fd_sc_hd__buf_2
*CAP
1 result[1] 0.000321424
2 *415:X 0.000321424
3 *413:A result[1] 5.66885e-05
*RES
1 *415:X result[1] 6.89023 
*END

*D_NET *22 0.000758777
*CONN
*P result[2] O
*I *416:X O *D sky130_fd_sc_hd__buf_2
*CAP
1 result[2] 0.000319198
2 *416:X 0.000319198
3 result[2] *416:A 0
4 *397:A result[2] 0
5 *398:A result[2] 6.59989e-05
6 *406:A result[2] 5.4382e-05
*RES
1 *416:X result[2] 5.9833 
*END

*D_NET *23 0.000575319
*CONN
*P result[3] O
*I *417:X O *D sky130_fd_sc_hd__buf_2
*CAP
1 result[3] 0.000251128
2 *417:X 0.000251128
3 *393:A result[3] 7.30635e-05
*RES
1 *417:X result[3] 5.16003 
*END

*D_NET *24 0.000886191
*CONN
*P result[4] O
*I *418:X O *D sky130_fd_sc_hd__buf_2
*CAP
1 result[4] 0.000429669
2 *418:X 0.000429669
3 result[4] *418:A 2.68526e-05
4 *408:A result[4] 0
*RES
1 *418:X result[4] 10.53 
*END

*D_NET *25 0.000565798
*CONN
*P result[5] O
*I *419:X O *D sky130_fd_sc_hd__buf_2
*CAP
1 result[5] 0.000227792
2 *419:X 0.000227792
3 *398:A result[5] 5.35248e-05
4 *407:A result[5] 5.66885e-05
*RES
1 *419:X result[5] 5.87023 
*END

*D_NET *26 0.00142223
*CONN
*P result[6] O
*I *420:X O *D sky130_fd_sc_hd__clkbuf_4
*CAP
1 result[6] 0.00066793
2 *420:X 0.00066793
3 result[6] result[7] 0
4 result[6] *420:A 8.63685e-05
5 *396:A result[6] 0
*RES
1 *420:X result[6] 14.295 
*END

*D_NET *27 0.0011514
*CONN
*P result[7] O
*I *421:X O *D sky130_fd_sc_hd__clkbuf_4
*CAP
1 result[7] 0.000573874
2 *421:X 0.000573874
3 result[7] *420:A 3.64998e-06
4 result[6] result[7] 0
*RES
1 *421:X result[7] 13.17 
*END

*D_NET *28 0.000578255
*CONN
*P sel[0] I
*I *404:A I *D sky130_fd_sc_hd__clkbuf_2
*CAP
1 sel[0] 0.000263629
2 *404:A 0.000263629
3 *402:A *404:A 2.85068e-05
4 *410:A *404:A 2.24901e-05
*RES
1 sel[0] *404:A 7.1793 
*END

*D_NET *29 0.000536972
*CONN
*P sel[1] I
*I *405:A I *D sky130_fd_sc_hd__buf_2
*CAP
1 sel[1] 0.000218384
2 *405:A 0.000218384
3 *405:A *381:B 4.92063e-05
4 *402:A *405:A 0
5 *403:A *405:A 0
6 *411:A *405:A 2.85068e-05
7 *412:A *405:A 2.24901e-05
*RES
1 sel[1] *405:A 5.61177 
*END

*D_NET *30 0.000719434
*CONN
*I *379:A I *D sky130_fd_sc_hd__nor2_1
*I *383:B I *D sky130_fd_sc_hd__nand2_1
*I *378:Y O *D sky130_fd_sc_hd__nor2_1
*CAP
1 *379:A 1.45076e-05
2 *383:B 6.07444e-05
3 *378:Y 0.000114863
4 *30:10 0.000190115
5 *379:A *378:A 2.68464e-05
6 *379:A *381:A 2.68464e-05
7 *383:B *376:A 8.80323e-05
8 *383:B *378:B 8.40315e-05
9 *30:10 *376:A 2.39947e-05
10 *30:10 *378:A 8.52883e-05
11 *30:10 *378:B 4.1652e-06
*RES
1 *378:Y *30:10 5.265 
2 *30:10 *383:B 5.49 
3 *30:10 *379:A 4.05 
*END

*D_NET *31 0.00055955
*CONN
*I *381:A I *D sky130_fd_sc_hd__xnor2_1
*I *379:Y O *D sky130_fd_sc_hd__nor2_1
*CAP
1 *381:A 0.000205303
2 *379:Y 0.000205303
3 *381:A *376:A 4.23802e-05
4 *381:A *378:A 7.11235e-06
5 *381:A *120:6 3.52106e-05
6 *379:A *381:A 2.68464e-05
7 *403:A *381:A 3.73935e-05
*RES
1 *379:Y *381:A 10.41 
*END

*D_NET *32 0.00135357
*CONN
*I *381:B I *D sky130_fd_sc_hd__xnor2_1
*I *380:X O *D sky130_fd_sc_hd__a21o_1
*CAP
1 *381:B 0.00058468
2 *380:X 0.00058468
3 *381:B *365:B 3.13346e-05
4 *381:B *383:A 0
5 *381:B *122:10 0
6 *402:A *381:B 0.000103671
7 *405:A *381:B 4.92063e-05
8 *411:A *381:B 0
*RES
1 *380:X *381:B 17.25 
*END

*D_NET *33 0.000368276
*CONN
*I *382:B I *D sky130_fd_sc_hd__xnor2_1
*I *381:Y O *D sky130_fd_sc_hd__xnor2_1
*CAP
1 *382:B 0.000140745
2 *381:Y 0.000140745
3 *382:B *383:A 4.66108e-05
4 *382:B *384:C1 4.01749e-05
*RES
1 *381:Y *382:B 5.39 
*END

*D_NET *34 0.00028717
*CONN
*I *384:B1 I *D sky130_fd_sc_hd__o221a_1
*I *382:Y O *D sky130_fd_sc_hd__xnor2_1
*CAP
1 *384:B1 7.41877e-05
2 *382:Y 7.41877e-05
3 *384:B1 *309:A0 3.12916e-05
4 *384:B1 *382:A 1.14169e-05
5 *384:B1 *384:A2 6.99384e-05
6 *384:B1 *384:C1 2.61481e-05
*RES
1 *382:Y *384:B1 5.06 
*END

*D_NET *35 0.000688833
*CONN
*I *384:C1 I *D sky130_fd_sc_hd__o221a_1
*I *383:Y O *D sky130_fd_sc_hd__nand2_1
*CAP
1 *384:C1 0.000203078
2 *383:Y 0.000203078
3 *384:C1 *309:A0 8.25945e-06
4 *384:C1 *382:A 0.000160314
5 *384:C1 *383:A 4.77807e-05
6 *382:B *384:C1 4.01749e-05
7 *384:B1 *384:C1 2.61481e-05
*RES
1 *383:Y *384:C1 6.77 
*END

*D_NET *36 0.0111815
*CONN
*I *320:A I *D sky130_fd_sc_hd__nand2_1
*I *321:C1 I *D sky130_fd_sc_hd__a211o_1
*I *306:A I *D sky130_fd_sc_hd__or2_1
*I *330:C1 I *D sky130_fd_sc_hd__a211o_1
*I *353:A1 I *D sky130_fd_sc_hd__a21o_1
*I *344:A1 I *D sky130_fd_sc_hd__a21o_1
*I *363:A1 I *D sky130_fd_sc_hd__a21o_1
*I *375:A1 I *D sky130_fd_sc_hd__a21o_1
*I *305:Y O *D sky130_fd_sc_hd__inv_2
*CAP
1 *320:A 0.000497554
2 *321:C1 0
3 *306:A 0
4 *330:C1 6.88297e-05
5 *353:A1 0.00041688
6 *344:A1 0.000513774
7 *363:A1 0.000426583
8 *375:A1 0.000273099
9 *305:Y 0
10 *36:96 0.000648015
11 *36:44 0.00131318
12 *36:38 0.000748946
13 *36:21 0.000901819
14 *36:17 0.00023265
15 *36:15 0.000330087
16 *36:4 0.000397719
17 *320:A *318:B 3.79062e-05
18 *320:A *319:A 1.08758e-05
19 *320:A *322:B1 0.000247526
20 *320:A *330:A1 0.000177326
21 *320:A *114:12 3.86252e-05
22 *320:A *114:16 1.87977e-05
23 *320:A *121:91 3.10331e-05
24 *330:C1 *325:A 0.000153547
25 *330:C1 *419:A 0.000272465
26 *344:A1 *336:A 0.000159075
27 *344:A1 *338:A 7.29165e-05
28 *344:A1 *338:B 5.07702e-05
29 *344:A1 *341:A 4.84962e-05
30 *344:A1 *344:A2 7.93384e-05
31 *344:A1 *344:B1 0.000189812
32 *344:A1 *133:10 0.000156911
33 *353:A1 *343:C1 4.02438e-05
34 *353:A1 *359:A3 0.000121791
35 *353:A1 *111:16 0.000123789
36 *353:A1 *133:14 4.66108e-05
37 *363:A1 *363:A2 1.31227e-05
38 *363:A1 *363:B1 8.64421e-05
39 *363:A1 *121:74 2.20732e-05
40 *375:A1 *391:D 4.87234e-06
41 *36:15 *121:91 8.41384e-05
42 *36:17 *37:10 2.41231e-05
43 *36:17 *121:91 5.69216e-05
44 *36:21 *305:A 2.11702e-05
45 *36:21 *121:74 0
46 *36:21 *121:91 4.28112e-06
47 *36:21 *122:81 0.00013363
48 *36:38 *324:A1 5.58206e-05
49 *36:38 *325:B 0.000112589
50 *36:38 *394:A 0.000176792
51 *36:38 *43:10 5.39961e-05
52 *36:38 *43:12 5.36385e-05
53 *36:38 *43:14 7.58798e-06
54 *36:38 *138:39 5.39961e-05
55 *36:44 *333:A1 2.59981e-05
56 *36:44 *334:A_N 1.73877e-05
57 *36:44 *337:B 0
58 *36:44 *343:A1 0.000101073
59 *36:44 *343:B1 0.00015356
60 *36:44 *394:A 0.000474894
61 *36:44 *43:14 0.000169196
62 *36:44 *116:72 2.67022e-05
63 *36:44 *133:10 2.02316e-05
64 *36:44 *133:36 3.96961e-05
65 *36:96 *305:A 8.74345e-06
66 *36:96 *37:10 2.69443e-06
67 *36:96 *37:40 1.30872e-05
68 *36:96 *121:91 0.000316094
*RES
1 *305:Y *36:4 1.6 
2 *36:4 *375:A1 4.465 
3 *36:4 *36:15 3.485 
4 *36:15 *36:17 1.38 
5 *36:17 *36:21 5.675 
6 *36:21 *363:A1 6.535 
7 *36:21 *36:38 7.64 
8 *36:38 *36:44 9.675 
9 *36:44 *344:A1 14.16 
10 *36:44 *353:A1 8.88 
11 *36:38 *330:C1 6.4575 
12 *36:17 *306:A 3.6 
13 *36:15 *36:96 5.48 
14 *36:96 *321:C1 1.6 
15 *36:96 *320:A 13.415 
*END

*D_NET *37 0.00626141
*CONN
*I *307:B1 I *D sky130_fd_sc_hd__o21a_1
*I *384:A1 I *D sky130_fd_sc_hd__o221a_1
*I *331:A2 I *D sky130_fd_sc_hd__o211a_1
*I *322:A2 I *D sky130_fd_sc_hd__o211a_1
*I *306:X O *D sky130_fd_sc_hd__or2_1
*CAP
1 *307:B1 0.000397172
2 *384:A1 0.000421885
3 *331:A2 0.000389256
4 *322:A2 3.9112e-05
5 *306:X 8.79622e-05
6 *37:40 0.00114855
7 *37:16 0.000828564
8 *37:10 0.000817647
9 *307:B1 *308:A 4.89295e-05
10 *307:B1 *309:A0 3.64998e-06
11 *307:B1 *310:A 0.000114785
12 *307:B1 *395:A 7.1377e-05
13 *322:A2 *318:B 0
14 *322:A2 *330:A1 1.57817e-05
15 *322:A2 *114:12 9.09788e-06
16 *331:A2 *318:B 2.59285e-05
17 *331:A2 *330:A1 0
18 *331:A2 *331:B1 9.09788e-06
19 *331:A2 *46:16 3.6227e-05
20 *331:A2 *115:10 0.000108329
21 *331:A2 *115:16 9.50342e-06
22 *384:A1 *309:A0 0.000658488
23 *384:A1 *392:D 0.000148849
24 *37:10 *313:A 2.01737e-05
25 *37:16 *321:A2 1.91021e-05
26 *37:16 *330:A1 9.14508e-06
27 *37:16 *114:16 0.000194365
28 *37:16 *121:91 0.000305061
29 *37:40 *309:A1 0.000283467
30 *37:40 *395:A 0
31 *37:40 *138:33 0
32 *393:A *331:A2 0
33 *36:17 *37:10 2.41231e-05
34 *36:96 *37:10 2.69443e-06
35 *36:96 *37:40 1.30872e-05
*RES
1 *306:X *37:10 4.92 
2 *37:10 *37:16 9.28 
3 *37:16 *322:A2 4.215 
4 *37:16 *331:A2 9.855 
5 *37:10 *37:40 8.48 
6 *37:40 *384:A1 10.705 
7 *37:40 *307:B1 12.455 
*END

*D_NET *38 0.00123741
*CONN
*I *309:A1 I *D sky130_fd_sc_hd__mux2_1
*I *307:X O *D sky130_fd_sc_hd__o21a_1
*CAP
1 *309:A1 0.000213798
2 *307:X 0.000213798
3 *309:A1 *308:A 4.85359e-05
4 *309:A1 *308:B 3.09088e-05
5 *309:A1 *309:S 0.000446906
6 *37:40 *309:A1 0.000283467
*RES
1 *307:X *309:A1 13.395 
*END

*D_NET *39 0.00109592
*CONN
*I *309:S I *D sky130_fd_sc_hd__mux2_1
*I *308:Y O *D sky130_fd_sc_hd__nand2_1
*CAP
1 *309:S 0.000258092
2 *308:Y 0.000258092
3 *309:S *420:A 0.000132827
4 *309:A1 *309:S 0.000446906
*RES
1 *308:Y *309:S 12.45 
*END

*D_NET *40 0.00137052
*CONN
*I *310:A I *D sky130_fd_sc_hd__clkbuf_1
*I *309:X O *D sky130_fd_sc_hd__mux2_1
*CAP
1 *310:A 0.000362065
2 *309:X 0.000362065
3 *310:A *395:A 4.77769e-05
4 *310:A *112:8 0.000100184
5 *310:A *138:10 0.000383649
6 *307:B1 *310:A 0.000114785
*RES
1 *309:X *310:A 14.805 
*END

*D_NET *41 0.00153949
*CONN
*I *319:A I *D sky130_fd_sc_hd__xnor2_1
*I *323:A1 I *D sky130_fd_sc_hd__a21o_1
*I *311:X O *D sky130_fd_sc_hd__or2b_1
*CAP
1 *319:A 0.000134014
2 *323:A1 2.74066e-05
3 *311:X 0.000220719
4 *41:10 0.000382139
5 *319:A *320:B 4.77807e-05
6 *319:A *322:B1 2.10905e-05
7 *319:A *124:14 0.000233594
8 *323:A1 *318:B 3.89366e-05
9 *323:A1 *124:14 7.1624e-05
10 *41:10 *318:A_N 5.0836e-05
11 *41:10 *318:B 0.000174393
12 *41:10 *386:D 6.98643e-05
13 *41:10 *114:12 4.70919e-05
14 *41:10 *124:14 9.12494e-06
15 *320:A *319:A 1.08758e-05
*RES
1 *311:X *41:10 7.575 
2 *41:10 *323:A1 4.47 
3 *41:10 *319:A 6.84 
*END

*D_NET *42 0.00041491
*CONN
*I *313:A I *D sky130_fd_sc_hd__buf_2
*I *312:X O *D sky130_fd_sc_hd__or2b_1
*CAP
1 *313:A 0.000115315
2 *312:X 0.000115315
3 *313:A *312:A 5.83121e-06
4 *313:A *121:81 4.77807e-05
5 *313:A *122:81 0.000110494
6 *37:10 *313:A 2.01737e-05
*RES
1 *312:X *313:A 5.735 
*END

*D_NET *43 0.00990945
*CONN
*I *315:A2 I *D sky130_fd_sc_hd__a21oi_1
*I *314:C I *D sky130_fd_sc_hd__and3_1
*I *324:B1 I *D sky130_fd_sc_hd__o21a_1
*I *354:A2 I *D sky130_fd_sc_hd__a211oi_1
*I *345:B1 I *D sky130_fd_sc_hd__o21a_1
*I *355:B1 I *D sky130_fd_sc_hd__o311a_1
*I *364:B1 I *D sky130_fd_sc_hd__o31a_1
*I *380:A2 I *D sky130_fd_sc_hd__a21o_1
*I *334:B I *D sky130_fd_sc_hd__nand3b_1
*I *333:A1 I *D sky130_fd_sc_hd__a21bo_1
*I *313:X O *D sky130_fd_sc_hd__buf_2
*CAP
1 *315:A2 0.000129839
2 *314:C 8.08826e-05
3 *324:B1 0
4 *354:A2 0.00011383
5 *345:B1 7.71197e-05
6 *355:B1 0
7 *364:B1 9.80015e-05
8 *380:A2 0.000261642
9 *334:B 0.000232707
10 *333:A1 4.60547e-05
11 *313:X 0
12 *43:95 0.000340129
13 *43:80 0.00017046
14 *43:65 0.000274467
15 *43:44 0.00151551
16 *43:14 0.000455383
17 *43:12 0.00132757
18 *43:10 9.64323e-05
19 *43:8 0.000197186
20 *43:6 0.000201968
21 *314:C *314:A 0.000110556
22 *315:A2 *315:A1 8.35106e-05
23 *315:A2 *138:35 4.22058e-05
24 *333:A1 *334:A_N 0.000151572
25 *333:A1 *343:C1 1.01661e-05
26 *333:A1 *60:20 0.000122325
27 *334:B *334:A_N 0.000320064
28 *334:B *60:16 2.53898e-05
29 *334:B *62:10 2.65814e-06
30 *345:B1 *345:A2 6.13951e-05
31 *345:B1 *121:12 4.91189e-05
32 *354:A2 *354:A1 4.82919e-05
33 *354:A2 *354:B1 2.0514e-05
34 *354:A2 *354:C1 0.000122699
35 *354:A2 *80:6 4.89295e-05
36 *364:B1 *355:A2 4.89295e-05
37 *364:B1 *355:C1 4.89295e-05
38 *380:A2 *365:B 3.19343e-05
39 *380:A2 *373:A1 3.89021e-05
40 *380:A2 *373:A2 3.13354e-05
41 *380:A2 *373:B1 0.000156155
42 *380:A2 *89:10 0.000317244
43 *380:A2 *119:23 3.05727e-05
44 *380:A2 *121:10 0.000113509
45 *380:A2 *122:16 0
46 *380:A2 *135:8 0.000122189
47 *380:A2 *135:17 8.52845e-05
48 *43:8 *314:B 6.04943e-05
49 *43:8 *122:81 1.96308e-05
50 *43:8 *138:35 8.26415e-05
51 *43:8 *138:39 1.52184e-05
52 *43:10 *314:B 5.73362e-05
53 *43:10 *138:39 3.23391e-05
54 *43:12 *314:B 2.7881e-05
55 *43:12 *325:B 7.03276e-05
56 *43:12 *122:81 2.71142e-05
57 *43:14 *325:B 5.00903e-05
58 *43:14 *343:C1 7.53948e-05
59 *43:14 *122:47 3.33651e-05
60 *43:14 *122:81 3.11595e-05
61 *43:44 *325:A 1.08758e-05
62 *43:44 *390:CLK 7.65493e-05
63 *43:44 *419:A 4.33561e-05
64 *43:44 *135:17 0.000258443
65 *43:44 *135:28 8.35068e-05
66 *43:65 *356:B 6.10467e-05
67 *43:80 *355:A2 4.77807e-05
68 *43:80 *355:A3 5.83121e-06
69 *43:95 *345:A2 2.92496e-05
70 *43:95 *355:A1 2.56518e-05
71 *43:95 *355:A2 4.77769e-05
72 *43:95 *355:A3 0.000199545
73 *43:95 *356:B 0.000201934
74 *43:95 *60:20 4.66108e-05
75 *43:95 *80:6 1.43191e-05
76 *36:38 *43:10 5.39961e-05
77 *36:38 *43:12 5.36385e-05
78 *36:38 *43:14 7.58798e-06
79 *36:44 *333:A1 2.59981e-05
80 *36:44 *43:14 0.000169196
*RES
1 *313:X *43:6 3.6 
2 *43:6 *43:8 2.145 
3 *43:8 *43:10 1.38 
4 *43:10 *43:12 1.635 
5 *43:12 *43:14 4.44 
6 *43:14 *333:A1 5.355 
7 *43:14 *334:B 7.77 
8 *43:12 *43:44 16.37 
9 *43:44 *380:A2 12.515 
10 *43:44 *43:65 4.4 
11 *43:65 *364:B1 4.845 
12 *43:65 *43:80 2.45 
13 *43:80 *355:B1 1.6 
14 *43:80 *43:95 8.155 
15 *43:95 *345:B1 7.43 
16 *43:95 *354:A2 4.135 
17 *43:10 *324:B1 3.6 
18 *43:8 *314:C 4.6425 
19 *43:6 *315:A2 5.955 
*END

*D_NET *44 0.00157268
*CONN
*I *316:A1 I *D sky130_fd_sc_hd__o21a_1
*I *317:B I *D sky130_fd_sc_hd__or3_1
*I *314:X O *D sky130_fd_sc_hd__and3_1
*CAP
1 *316:A1 2.3423e-05
2 *317:B 0.000228594
3 *314:X 0.00033962
4 *44:10 0.000591637
5 *316:A1 *114:39 4.99581e-05
6 *317:B *317:C 0.000130284
7 *317:B *45:6 4.66108e-05
8 *317:B *124:14 4.77807e-05
9 *317:B *124:23 9.47267e-06
10 *44:10 *314:A 3.64622e-05
11 *44:10 *114:39 6.88421e-05
*RES
1 *314:X *44:10 7.68 
2 *44:10 *317:B 7.29 
3 *44:10 *316:A1 4.215 
*END

*D_NET *45 0.000582679
*CONN
*I *317:C I *D sky130_fd_sc_hd__or3_1
*I *316:A2 I *D sky130_fd_sc_hd__o21a_1
*I *315:Y O *D sky130_fd_sc_hd__a21oi_1
*CAP
1 *317:C 8.00921e-05
2 *316:A2 0
3 *315:Y 3.87655e-05
4 *45:6 0.000118858
5 *317:C *316:B1 5.0134e-06
6 *317:C *321:B1 2.51225e-05
7 *317:C *124:23 0.000114098
8 *45:6 *315:B1 1.77595e-05
9 *45:6 *321:B1 6.07575e-06
10 *317:B *317:C 0.000130284
11 *317:B *45:6 4.66108e-05
*RES
1 *315:Y *45:6 2.395 
2 *45:6 *316:A2 1.6 
3 *45:6 *317:C 4.36 
*END

*D_NET *46 0.00166874
*CONN
*I *318:A_N I *D sky130_fd_sc_hd__and2b_1
*I *323:B1 I *D sky130_fd_sc_hd__a21o_1
*I *316:X O *D sky130_fd_sc_hd__o21a_1
*CAP
1 *318:A_N 0.000201327
2 *323:B1 0
3 *316:X 0.000437699
4 *46:16 0.000639026
5 *318:A_N *319:B 0
6 *318:A_N *386:D 0.000115343
7 *318:A_N *124:14 0.000105518
8 *46:16 *330:A1 2.41231e-05
9 *46:16 *115:10 2.87722e-05
10 *46:16 *124:14 2.98644e-05
11 *331:A2 *46:16 3.6227e-05
12 *41:10 *318:A_N 5.0836e-05
*RES
1 *316:X *46:16 13.315 
2 *46:16 *323:B1 3.6 
3 *46:16 *318:A_N 7.53 
*END

*D_NET *47 0.00112698
*CONN
*I *318:B I *D sky130_fd_sc_hd__and2b_1
*I *323:A2 I *D sky130_fd_sc_hd__a21o_1
*I *317:X O *D sky130_fd_sc_hd__or3_1
*CAP
1 *318:B 0.000263403
2 *323:A2 4.83288e-05
3 *317:X 0
4 *47:4 0.000311732
5 *318:B *386:D 7.21296e-06
6 *318:B *114:12 0.000157968
7 *323:A2 *321:B1 0
8 *323:A2 *124:14 4.89395e-05
9 *323:A2 *124:23 1.22325e-05
10 *320:A *318:B 3.79062e-05
11 *322:A2 *318:B 0
12 *323:A1 *318:B 3.89366e-05
13 *331:A2 *318:B 2.59285e-05
14 *41:10 *318:B 0.000174393
*RES
1 *317:X *47:4 1.6 
2 *47:4 *323:A2 2.665 
3 *47:4 *318:B 11.285 
*END

*D_NET *48 0.000266115
*CONN
*I *319:B I *D sky130_fd_sc_hd__xnor2_1
*I *318:X O *D sky130_fd_sc_hd__and2b_1
*CAP
1 *319:B 0.000124467
2 *318:X 0.000124467
3 *319:B *114:12 1.71824e-05
4 *318:A_N *319:B 0
*RES
1 *318:X *319:B 9.03 
*END

*D_NET *49 0.000158699
*CONN
*I *320:B I *D sky130_fd_sc_hd__nand2_1
*I *319:Y O *D sky130_fd_sc_hd__xnor2_1
*CAP
1 *320:B 5.5459e-05
2 *319:Y 5.5459e-05
3 *319:A *320:B 4.77807e-05
*RES
1 *319:Y *320:B 4.265 
*END

*D_NET *50 0.000668971
*CONN
*I *322:B1 I *D sky130_fd_sc_hd__o211a_1
*I *320:Y O *D sky130_fd_sc_hd__nand2_1
*CAP
1 *322:B1 0.000129036
2 *320:Y 0.000129036
3 *322:B1 *386:D 8.92833e-05
4 *322:B1 *114:16 5.29975e-05
5 *319:A *322:B1 2.10905e-05
6 *320:A *322:B1 0.000247526
*RES
1 *320:Y *322:B1 6.77 
*END

*D_NET *51 9.85931e-05
*CONN
*I *322:C1 I *D sky130_fd_sc_hd__o211a_1
*I *321:X O *D sky130_fd_sc_hd__a211o_1
*CAP
1 *322:C1 1.19504e-05
2 *321:X 1.19504e-05
3 *322:C1 *330:A1 2.69153e-05
4 *322:C1 *114:16 4.77769e-05
*RES
1 *321:X *322:C1 3.65 
*END

*D_NET *52 0.00294934
*CONN
*I *327:A I *D sky130_fd_sc_hd__nand2_1
*I *328:A I *D sky130_fd_sc_hd__or2_1
*I *340:A1 I *D sky130_fd_sc_hd__a21oi_1
*I *348:A1 I *D sky130_fd_sc_hd__a211o_1
*I *323:X O *D sky130_fd_sc_hd__a21o_1
*CAP
1 *327:A 7.82034e-05
2 *328:A 0
3 *340:A1 0.000186004
4 *348:A1 0
5 *323:X 0.000499577
6 *52:42 0.000104016
7 *52:20 0.000572734
8 *52:10 0.00091212
9 *327:A *328:B 4.29667e-05
10 *327:A *132:10 2.58336e-05
11 *340:A1 *340:A2 2.10214e-05
12 *340:A1 *348:A2 0.000195688
13 *340:A1 *67:12 1.45935e-05
14 *52:10 *329:A2 0.000110785
15 *52:10 *387:CLK 0
16 *52:20 *387:CLK 0.000135026
17 *52:20 *55:12 0
18 *52:20 *67:12 2.99518e-06
19 *52:42 *132:10 4.77757e-05
20 *393:A *52:10 0
*RES
1 *323:X *52:10 11.64 
2 *52:10 *52:20 6.66 
3 *52:20 *348:A1 3.6 
4 *52:20 *340:A1 6.39 
5 *52:10 *52:42 2.45 
6 *52:42 *328:A 1.6 
7 *52:42 *327:A 3.1 
*END

*D_NET *53 0.000429997
*CONN
*I *325:B I *D sky130_fd_sc_hd__xnor2_1
*I *324:X O *D sky130_fd_sc_hd__o21a_1
*CAP
1 *325:B 7.51895e-05
2 *324:X 7.51895e-05
3 *325:B *114:45 4.66108e-05
4 *36:38 *325:B 0.000112589
5 *43:12 *325:B 7.03276e-05
6 *43:14 *325:B 5.00903e-05
*RES
1 *324:X *325:B 9.03 
*END

*D_NET *54 0.00226003
*CONN
*I *326:B I *D sky130_fd_sc_hd__xor2_1
*I *339:B I *D sky130_fd_sc_hd__and2_1
*I *325:Y O *D sky130_fd_sc_hd__xnor2_1
*CAP
1 *326:B 2.61242e-05
2 *339:B 0.000213273
3 *325:Y 0.000422206
4 *54:10 0.000661603
5 *326:B *330:B1 4.66108e-05
6 *339:B *60:12 0
7 *54:10 *329:B1 6.90254e-05
8 *54:10 *419:A 0.000528984
9 *393:A *339:B 0.000158748
10 *393:A *54:10 0.000133453
*RES
1 *325:Y *54:10 10.17 
2 *54:10 *339:B 7.335 
3 *54:10 *326:B 4.05 
*END

*D_NET *55 0.00233062
*CONN
*I *327:B I *D sky130_fd_sc_hd__nand2_1
*I *328:B I *D sky130_fd_sc_hd__or2_1
*I *340:A2 I *D sky130_fd_sc_hd__a21oi_1
*I *348:A2 I *D sky130_fd_sc_hd__a211o_1
*I *326:X O *D sky130_fd_sc_hd__xor2_1
*CAP
1 *327:B 0
2 *328:B 5.93169e-05
3 *340:A2 4.30861e-05
4 *348:A2 0.000126403
5 *326:X 0.000221255
6 *55:36 0.000123835
7 *55:12 0.000387841
8 *55:8 0.000504125
9 *328:B *132:10 0.000140394
10 *348:A2 *340:B1 4.82919e-05
11 *348:A2 *341:B 1.05984e-05
12 *348:A2 *348:B1 0.000114201
13 *55:8 *132:10 0.000239195
14 *55:12 *67:12 5.23955e-05
15 *327:A *328:B 4.29667e-05
16 *340:A1 *340:A2 2.10214e-05
17 *340:A1 *348:A2 0.000195688
18 *52:20 *55:12 0
*RES
1 *326:X *55:8 6.465 
2 *55:8 *55:12 5.42 
3 *55:12 *348:A2 5.29 
4 *55:12 *340:A2 2.395 
5 *55:8 *55:36 2.87 
6 *55:36 *328:B 3.46 
7 *55:36 *327:B 1.6 
*END

*D_NET *56 0.000940503
*CONN
*I *329:A1 I *D sky130_fd_sc_hd__a21o_1
*I *327:Y O *D sky130_fd_sc_hd__nand2_1
*CAP
1 *329:A1 0.000298964
2 *327:Y 0.000298964
3 *329:A1 *419:A 0.000342575
*RES
1 *327:Y *329:A1 11.28 
*END

*D_NET *57 0.000477039
*CONN
*I *329:A2 I *D sky130_fd_sc_hd__a21o_1
*I *328:X O *D sky130_fd_sc_hd__or2_1
*CAP
1 *329:A2 0.000103693
2 *328:X 0.000103693
3 *329:A2 *387:CLK 3.72103e-05
4 *329:A2 *419:A 0.000121659
5 *52:10 *329:A2 0.000110785
*RES
1 *328:X *329:A2 9.72 
*END

*D_NET *58 0.000512342
*CONN
*I *331:B1 I *D sky130_fd_sc_hd__o211a_1
*I *329:X O *D sky130_fd_sc_hd__a21o_1
*CAP
1 *331:B1 0.000142884
2 *329:X 0.000142884
3 *331:B1 *329:B1 3.64998e-06
4 *331:B1 *331:C1 0.000124634
5 *331:B1 *419:A 7.18107e-06
6 *331:B1 *115:16 8.20095e-05
7 *331:A2 *331:B1 9.09788e-06
*RES
1 *329:X *331:B1 9.975 
*END

*D_NET *59 0.000517476
*CONN
*I *331:C1 I *D sky130_fd_sc_hd__o211a_1
*I *330:X O *D sky130_fd_sc_hd__a211o_1
*CAP
1 *331:C1 0.000104824
2 *330:X 0.000104824
3 *331:C1 *325:A 4.89295e-05
4 *331:C1 *330:A1 9.0191e-05
5 *331:C1 *115:16 4.40742e-05
6 *331:B1 *331:C1 0.000124634
*RES
1 *330:X *331:C1 10.23 
*END

*D_NET *60 0.00492352
*CONN
*I *334:C I *D sky130_fd_sc_hd__nand3b_1
*I *333:A2 I *D sky130_fd_sc_hd__a21bo_1
*I *355:A3 I *D sky130_fd_sc_hd__o311a_1
*I *345:A2 I *D sky130_fd_sc_hd__o21a_1
*I *332:X O *D sky130_fd_sc_hd__or3_2
*CAP
1 *334:C 0
2 *333:A2 1.72654e-05
3 *355:A3 0.000124402
4 *345:A2 6.92622e-05
5 *332:X 0.000400362
6 *60:20 0.00123487
7 *60:16 0.0011395
8 *60:12 0.000481393
9 *345:A2 *355:A1 6.10863e-05
10 *345:A2 *121:12 0
11 *355:A3 *121:12 0
12 *60:12 *330:A1 0.000137228
13 *60:12 *330:B1 0.000153177
14 *60:12 *332:A 5.06989e-05
15 *60:12 *332:C 3.64998e-06
16 *60:12 *114:39 2.84864e-05
17 *60:12 *114:45 0.00012208
18 *60:16 *334:A_N 0.000103841
19 *60:16 *61:10 8.52845e-05
20 *60:20 *334:A_N 4.15354e-05
21 *60:20 *357:A2 9.77048e-06
22 *60:20 *357:B1 7.05395e-05
23 *60:20 *369:B1_N 1.52352e-05
24 *60:20 *80:6 8.35106e-05
25 *333:A1 *60:20 0.000122325
26 *334:B *60:16 2.53898e-05
27 *339:B *60:12 0
28 *345:B1 *345:A2 6.13951e-05
29 *393:A *60:12 0
30 *43:80 *355:A3 5.83121e-06
31 *43:95 *345:A2 2.92496e-05
32 *43:95 *355:A3 0.000199545
33 *43:95 *60:20 4.66108e-05
*RES
1 *332:X *60:12 13.055 
2 *60:12 *60:16 2.19 
3 *60:16 *60:20 16.94 
4 *60:20 *345:A2 5.235 
5 *60:20 *355:A3 6.195 
6 *60:16 *333:A2 1.96 
7 *60:12 *334:C 1.6 
*END

*D_NET *61 0.00153375
*CONN
*I *335:A1 I *D sky130_fd_sc_hd__a21o_1
*I *337:B I *D sky130_fd_sc_hd__and3_1
*I *333:X O *D sky130_fd_sc_hd__a21bo_1
*CAP
1 *335:A1 0.000195091
2 *337:B 0.000230018
3 *333:X 0.000105521
4 *61:10 0.00053063
5 *335:A1 *335:A2 0.000106311
6 *335:A1 *394:A 4.77757e-05
7 *335:A1 *75:18 1.42598e-05
8 *337:B *337:C 6.97358e-05
9 *337:B *62:10 2.26364e-05
10 *337:B *111:16 9.19786e-05
11 *61:10 *62:10 3.45117e-05
12 *36:44 *337:B 0
13 *60:16 *61:10 8.52845e-05
*RES
1 *333:X *61:10 5.265 
2 *61:10 *337:B 7.23 
3 *61:10 *335:A1 6.12 
*END

*D_NET *62 0.00156101
*CONN
*I *335:A2 I *D sky130_fd_sc_hd__a21o_1
*I *337:C I *D sky130_fd_sc_hd__and3_1
*I *334:Y O *D sky130_fd_sc_hd__nand3b_1
*CAP
1 *335:A2 8.12193e-05
2 *337:C 0.000235568
3 *334:Y 0.000150732
4 *62:10 0.000467519
5 *335:A2 *394:A 4.89295e-05
6 *335:A2 *75:18 0.000307444
7 *337:C *338:B 3.06554e-06
8 *337:C *111:16 3.06789e-05
9 *334:B *62:10 2.65814e-06
10 *335:A1 *335:A2 0.000106311
11 *337:B *337:C 6.97358e-05
12 *337:B *62:10 2.26364e-05
13 *393:A *62:10 0
14 *61:10 *62:10 3.45117e-05
*RES
1 *334:Y *62:10 5.775 
2 *62:10 *337:C 7.32 
3 *62:10 *335:A2 6.465 
*END

*D_NET *63 0.0037656
*CONN
*I *336:A I *D sky130_fd_sc_hd__inv_2
*I *359:A1 I *D sky130_fd_sc_hd__a32o_1
*I *349:A I *D sky130_fd_sc_hd__nand2_1
*I *370:A1 I *D sky130_fd_sc_hd__a31oi_1
*I *335:X O *D sky130_fd_sc_hd__a21o_1
*CAP
1 *336:A 0.000169758
2 *359:A1 0
3 *349:A 7.73235e-05
4 *370:A1 0
5 *335:X 0.000162332
6 *63:36 0.000234669
7 *63:28 0.000636181
8 *63:12 0.000810926
9 *349:A *370:A3 6.40564e-05
10 *349:A *116:40 0.000160604
11 *63:12 *343:B1 4.66108e-05
12 *63:12 *343:C1 0.000133453
13 *63:12 *133:10 0.000134756
14 *63:12 *133:36 0.000145857
15 *63:28 *342:B1 0.000204865
16 *63:28 *350:B 1.28996e-05
17 *63:28 *353:A2 2.30184e-05
18 *63:28 *353:B1 8.73389e-06
19 *63:28 *359:A3 5.12969e-06
20 *63:28 *389:CLK 4.89362e-05
21 *63:28 *389:D 0.000127631
22 *63:28 *74:12 0.000112279
23 *63:36 *350:B 8.12301e-05
24 *63:36 *353:B1 1.79892e-05
25 *63:36 *359:B1 6.62709e-05
26 *63:36 *370:A2 3.01393e-05
27 *63:36 *370:B1 6.21647e-05
28 *63:36 *116:12 2.87133e-05
29 *344:A1 *336:A 0.000159075
*RES
1 *335:X *63:12 9.47 
2 *63:12 *63:28 13.225 
3 *63:28 *63:36 7.54 
4 *63:36 *370:A1 1.6 
5 *63:36 *349:A 4.1125 
6 *63:28 *359:A1 1.6 
7 *63:12 *336:A 4.81 
*END

*D_NET *64 0.00018657
*CONN
*I *338:A I *D sky130_fd_sc_hd__nor2_1
*I *336:Y O *D sky130_fd_sc_hd__inv_2
*CAP
1 *338:A 3.13887e-05
2 *336:Y 3.13887e-05
3 *338:A *344:B1 5.0876e-05
4 *344:A1 *338:A 7.29165e-05
*RES
1 *336:Y *338:A 4.34 
*END

*D_NET *65 0.00211003
*CONN
*I *348:B1 I *D sky130_fd_sc_hd__a211o_1
*I *338:B I *D sky130_fd_sc_hd__nor2_1
*I *337:X O *D sky130_fd_sc_hd__and3_1
*CAP
1 *348:B1 0.000203254
2 *338:B 0.00017419
3 *337:X 0
4 *65:6 0.000377445
5 *338:B *341:A 8.52845e-05
6 *338:B *341:B 8.6103e-05
7 *338:B *111:12 5.1875e-05
8 *348:B1 *341:B 0.000467451
9 *348:B1 *75:18 0.000383685
10 *348:B1 *111:12 0.000112702
11 *337:C *338:B 3.06554e-06
12 *344:A1 *338:B 5.07702e-05
13 *348:A2 *348:B1 0.000114201
*RES
1 *337:X *65:6 3.6 
2 *65:6 *338:B 7.605 
3 *65:6 *348:B1 10.62 
*END

*D_NET *66 0.000382139
*CONN
*I *341:A I *D sky130_fd_sc_hd__xnor2_1
*I *338:Y O *D sky130_fd_sc_hd__nor2_1
*CAP
1 *341:A 4.43282e-05
2 *338:Y 4.43282e-05
3 *341:A *344:B1 0.000159702
4 *338:B *341:A 8.52845e-05
5 *344:A1 *341:A 4.84962e-05
*RES
1 *338:Y *341:A 5.045 
*END

*D_NET *67 0.000745634
*CONN
*I *340:B1 I *D sky130_fd_sc_hd__a21oi_1
*I *348:C1 I *D sky130_fd_sc_hd__a211o_1
*I *339:X O *D sky130_fd_sc_hd__and2_1
*CAP
1 *340:B1 9.4381e-06
2 *348:C1 0
3 *339:X 0.000289857
4 *67:12 0.000299295
5 *340:B1 *341:B 2.87688e-05
6 *340:A1 *67:12 1.45935e-05
7 *348:A2 *340:B1 4.82919e-05
8 *52:20 *67:12 2.99518e-06
9 *55:12 *67:12 5.23955e-05
*RES
1 *339:X *67:12 9.155 
2 *67:12 *348:C1 1.6 
3 *67:12 *340:B1 2.05 
*END

*D_NET *68 0.00171068
*CONN
*I *341:B I *D sky130_fd_sc_hd__xnor2_1
*I *340:Y O *D sky130_fd_sc_hd__a21oi_1
*CAP
1 *341:B 0.000424216
2 *340:Y 0.000424216
3 *341:B *387:CLK 0.000160338
4 *341:B *111:12 0.000108983
5 *338:B *341:B 8.6103e-05
6 *340:B1 *341:B 2.87688e-05
7 *348:A2 *341:B 1.05984e-05
8 *348:B1 *341:B 0.000467451
*RES
1 *340:Y *341:B 16.065 
*END

*D_NET *69 0.000162323
*CONN
*I *344:A2 I *D sky130_fd_sc_hd__a21o_1
*I *341:Y O *D sky130_fd_sc_hd__xnor2_1
*CAP
1 *344:A2 4.14925e-05
2 *341:Y 4.14925e-05
3 *344:A1 *344:A2 7.93384e-05
*RES
1 *341:Y *344:A2 4.265 
*END

*D_NET *70 0.00101059
*CONN
*I *343:B1 I *D sky130_fd_sc_hd__o211a_1
*I *342:X O *D sky130_fd_sc_hd__a21o_1
*CAP
1 *343:B1 0.000233134
2 *342:X 0.000233134
3 *343:B1 *335:B1 1.9509e-05
4 *343:B1 *342:A2 8.46818e-05
5 *343:B1 *343:A1 1.50383e-05
6 *343:B1 *75:18 0.000128216
7 *343:B1 *111:16 4.77757e-05
8 *343:B1 *133:14 4.89295e-05
9 *36:44 *343:B1 0.00015356
10 *63:12 *343:B1 4.66108e-05
*RES
1 *342:X *343:B1 12.06 
*END

*D_NET *71 0.0013844
*CONN
*I *344:B1 I *D sky130_fd_sc_hd__a21o_1
*I *343:X O *D sky130_fd_sc_hd__o211a_1
*CAP
1 *344:B1 0.000492004
2 *343:X 0.000492004
3 *338:A *344:B1 5.0876e-05
4 *341:A *344:B1 0.000159702
5 *344:A1 *344:B1 0.000189812
*RES
1 *343:X *344:B1 13.965 
*END

*D_NET *72 0.00200814
*CONN
*I *364:A3 I *D sky130_fd_sc_hd__o31a_1
*I *354:B1 I *D sky130_fd_sc_hd__a211oi_1
*I *346:B I *D sky130_fd_sc_hd__xnor2_1
*I *345:X O *D sky130_fd_sc_hd__o21a_1
*CAP
1 *364:A3 0.000129547
2 *354:B1 6.34469e-05
3 *346:B 0.000147196
4 *345:X 0.000113271
5 *72:19 0.000271701
6 *72:8 0.000339175
7 *346:B *342:B1 7.50642e-05
8 *346:B *346:A 7.40338e-05
9 *346:B *117:10 8.87378e-05
10 *346:B *121:12 6.80167e-05
11 *354:B1 *354:C1 8.35106e-05
12 *364:A3 *354:C1 0.000114551
13 *364:A3 *355:A2 6.07575e-06
14 *364:A3 *355:C1 2.49909e-05
15 *364:A3 *117:8 2.52026e-05
16 *364:A3 *117:54 9.18547e-06
17 *72:19 *354:C1 3.09164e-05
18 *72:19 *117:8 4.39734e-05
19 *72:19 *117:10 9.90715e-05
20 *72:19 *121:12 0.000120496
21 *354:A2 *354:B1 2.0514e-05
22 *401:A *364:A3 5.94628e-05
*RES
1 *345:X *72:8 4.74 
2 *72:8 *346:B 7.275 
3 *72:8 *72:19 2.91 
4 *72:19 *354:B1 4.74 
5 *72:19 *364:A3 6.135 
*END

*D_NET *73 0.00190201
*CONN
*I *359:B1 I *D sky130_fd_sc_hd__a32o_1
*I *369:A2 I *D sky130_fd_sc_hd__a21bo_1
*I *347:B I *D sky130_fd_sc_hd__xor2_1
*I *346:Y O *D sky130_fd_sc_hd__xnor2_1
*CAP
1 *359:B1 8.25119e-05
2 *369:A2 0
3 *347:B 0
4 *346:Y 9.11263e-05
5 *73:21 0.000302005
6 *73:8 0.00031062
7 *359:B1 *353:B1 3.16976e-05
8 *359:B1 *359:B2 0.000157394
9 *73:8 *342:B1 4.57056e-05
10 *73:21 *342:B1 0.000129536
11 *73:21 *347:A 4.89395e-05
12 *73:21 *74:8 0.000272265
13 *73:21 *116:12 0.000177525
14 *73:21 *134:12 0.00018641
15 *63:36 *359:B1 6.62709e-05
*RES
1 *346:Y *73:8 3.1 
2 *73:8 *347:B 1.6 
3 *73:8 *73:21 10.39 
4 *73:21 *369:A2 1.6 
5 *73:21 *359:B1 3.6025 
*END

*D_NET *74 0.00198623
*CONN
*I *350:A I *D sky130_fd_sc_hd__xnor2_1
*I *359:A2 I *D sky130_fd_sc_hd__a32o_1
*I *370:A2 I *D sky130_fd_sc_hd__a31oi_1
*I *347:X O *D sky130_fd_sc_hd__xor2_1
*CAP
1 *350:A 0
2 *359:A2 2.47363e-05
3 *370:A2 0.000179157
4 *347:X 0.000304766
5 *74:12 0.000282855
6 *74:8 0.000383728
7 *370:A2 *350:B 0.000125625
8 *370:A2 *360:B 0
9 *370:A2 *370:B1 9.86398e-06
10 *74:8 *342:B1 0.000104653
11 *74:12 *350:B 0.000156159
12 *63:28 *74:12 0.000112279
13 *63:36 *370:A2 3.01393e-05
14 *73:21 *74:8 0.000272265
*RES
1 *347:X *74:8 7.15 
2 *74:8 *74:12 3.89 
3 *74:12 *370:A2 6.9 
4 *74:12 *359:A2 4.05 
5 *74:8 *350:A 1.6 
*END

*D_NET *75 0.00437549
*CONN
*I *359:A3 I *D sky130_fd_sc_hd__a32o_1
*I *349:B I *D sky130_fd_sc_hd__nand2_1
*I *370:A3 I *D sky130_fd_sc_hd__a31oi_1
*I *348:X O *D sky130_fd_sc_hd__a211o_1
*CAP
1 *359:A3 0.000236096
2 *349:B 2.58084e-05
3 *370:A3 9.6499e-05
4 *348:X 0.000629857
5 *75:20 0.000240353
6 *75:18 0.000983999
7 *349:B *116:40 2.6306e-05
8 *359:A3 *353:A2 4.77757e-05
9 *359:A3 *353:B1 0.000124702
10 *359:A3 *389:CLK 2.50751e-05
11 *359:A3 *390:CLK 7.40338e-05
12 *359:A3 *111:16 2.01504e-05
13 *370:A3 *350:B 0.000120576
14 *370:A3 *116:40 2.21006e-05
15 *75:18 *335:B1 7.62106e-05
16 *75:18 *342:A2 0.000179006
17 *75:18 *116:40 0.000107898
18 *75:18 *116:49 0.000263616
19 *75:20 *116:40 5.08466e-05
20 *335:A1 *75:18 1.42598e-05
21 *335:A2 *75:18 0.000307444
22 *343:B1 *75:18 0.000128216
23 *348:B1 *75:18 0.000383685
24 *349:A *370:A3 6.40564e-05
25 *353:A1 *359:A3 0.000121791
26 *63:28 *359:A3 5.12969e-06
*RES
1 *348:X *75:18 16.285 
2 *75:18 *75:20 1.83 
3 *75:20 *370:A3 4.045 
4 *75:20 *349:B 2.6275 
5 *75:18 *359:A3 10.625 
*END

*D_NET *76 0.000946462
*CONN
*I *350:B I *D sky130_fd_sc_hd__xnor2_1
*I *349:Y O *D sky130_fd_sc_hd__nand2_1
*CAP
1 *350:B 0.000224986
2 *349:Y 0.000224986
3 *370:A2 *350:B 0.000125625
4 *370:A3 *350:B 0.000120576
5 *63:28 *350:B 1.28996e-05
6 *63:36 *350:B 8.12301e-05
7 *74:12 *350:B 0.000156159
*RES
1 *349:Y *350:B 12.015 
*END

*D_NET *77 0.000322927
*CONN
*I *353:A2 I *D sky130_fd_sc_hd__a21o_1
*I *350:Y O *D sky130_fd_sc_hd__xnor2_1
*CAP
1 *353:A2 9.36633e-05
2 *350:Y 9.36633e-05
3 *353:A2 *353:B1 2.68526e-05
4 *353:A2 *389:CLK 3.79532e-05
5 *359:A3 *353:A2 4.77757e-05
6 *63:28 *353:A2 2.30184e-05
*RES
1 *350:Y *353:A2 9.03 
*END

*D_NET *78 0.000298373
*CONN
*I *352:B1 I *D sky130_fd_sc_hd__o211a_1
*I *351:X O *D sky130_fd_sc_hd__a21o_1
*CAP
1 *352:B1 3.60594e-05
2 *351:X 3.60594e-05
3 *352:B1 *351:A2 0.000122191
4 *352:B1 *352:A1 7.27717e-05
5 *352:B1 *134:32 3.12916e-05
*RES
1 *351:X *352:B1 4.7 
*END

*D_NET *79 0.00162403
*CONN
*I *353:B1 I *D sky130_fd_sc_hd__a21o_1
*I *352:X O *D sky130_fd_sc_hd__o211a_1
*CAP
1 *353:B1 0.000363404
2 *352:X 0.000363404
3 *353:B1 *352:C1 0.00019723
4 *353:B1 *359:B2 0.00019608
5 *353:B1 *360:B 4.89295e-05
6 *353:B1 *111:16 4.77757e-05
7 *353:B1 *134:45 0.00019723
8 *353:A2 *353:B1 2.68526e-05
9 *359:A3 *353:B1 0.000124702
10 *359:B1 *353:B1 3.16976e-05
11 *63:28 *353:B1 8.73389e-06
12 *63:36 *353:B1 1.79892e-05
*RES
1 *352:X *353:B1 11.27 
*END

*D_NET *80 0.00157333
*CONN
*I *357:A1 I *D sky130_fd_sc_hd__o21ai_1
*I *356:B I *D sky130_fd_sc_hd__nor3_1
*I *354:Y O *D sky130_fd_sc_hd__a211oi_1
*CAP
1 *357:A1 0
2 *356:B 0.00027137
3 *354:Y 7.32682e-05
4 *80:6 0.000344638
5 *356:B *355:A1 0.000202581
6 *356:B *356:A 2.49909e-05
7 *356:B *357:A2 1.49348e-05
8 *356:B *373:B1 0
9 *356:B *121:10 0
10 *356:B *121:74 4.66108e-05
11 *356:B *122:16 0.000165507
12 *356:B *122:22 1.96913e-05
13 *354:A2 *80:6 4.89295e-05
14 *43:65 *356:B 6.10467e-05
15 *43:95 *356:B 0.000201934
16 *43:95 *80:6 1.43191e-05
17 *60:20 *80:6 8.35106e-05
*RES
1 *354:Y *80:6 3.085 
2 *80:6 *356:B 12.275 
3 *80:6 *357:A1 1.6 
*END

*D_NET *81 0.0016513
*CONN
*I *356:C I *D sky130_fd_sc_hd__nor3_1
*I *357:A2 I *D sky130_fd_sc_hd__o21ai_1
*I *355:X O *D sky130_fd_sc_hd__o311a_1
*CAP
1 *356:C 0.00029964
2 *357:A2 0.000143605
3 *355:X 0
4 *81:4 0.000443245
5 *356:C *356:A 0.000289598
6 *356:C *357:B1 0.000131365
7 *356:C *358:B 2.50123e-05
8 *356:C *121:74 7.08493e-05
9 *356:C *122:16 0
10 *357:A2 *355:A1 2.51754e-05
11 *357:A2 *357:B1 5.95126e-05
12 *357:A2 *358:B 9.08126e-05
13 *357:A2 *369:B1_N 4.77757e-05
14 *356:B *357:A2 1.49348e-05
15 *60:20 *357:A2 9.77048e-06
*RES
1 *355:X *81:4 1.6 
2 *81:4 *357:A2 8.54 
3 *81:4 *356:C 11.21 
*END

*D_NET *82 0.00319925
*CONN
*I *358:A_N I *D sky130_fd_sc_hd__and2b_1
*I *371:A I *D sky130_fd_sc_hd__nor2_1
*I *377:A1 I *D sky130_fd_sc_hd__o31a_1
*I *356:Y O *D sky130_fd_sc_hd__nor3_1
*CAP
1 *358:A_N 0.000176782
2 *371:A 0.000386495
3 *377:A1 4.29252e-05
4 *356:Y 8.1149e-05
5 *82:14 0.00061915
6 *82:6 0.000447661
7 *358:A_N *352:C1 0.000125828
8 *358:A_N *356:A 0.00023698
9 *358:A_N *357:B1 0.000156923
10 *358:A_N *363:B1 0.000161321
11 *358:A_N *95:12 4.73816e-05
12 *358:A_N *121:74 8.73389e-06
13 *358:A_N *122:16 0
14 *371:A *371:B 6.72833e-06
15 *371:A *372:A 0.000115351
16 *371:A *372:B 0.000197216
17 *371:A *375:A2 1.16854e-05
18 *371:A *377:A2 9.24881e-05
19 *371:A *377:B1 1.9415e-05
20 *377:A1 *371:B 1.8181e-05
21 *82:6 *356:A 0.000123955
22 *82:14 *368:A 3.446e-05
23 *82:14 *377:B1 2.65814e-06
24 *82:14 *382:A 7.54478e-05
25 *82:14 *91:6 1.03323e-05
26 *82:14 *122:16 0
*RES
1 *356:Y *82:6 2.74 
2 *82:6 *82:14 6.94 
3 *82:14 *377:A1 2.47 
4 *82:14 *371:A 12.38 
5 *82:6 *358:A_N 10.835 
*END

*D_NET *83 0.00175086
*CONN
*I *369:B1_N I *D sky130_fd_sc_hd__a21bo_1
*I *358:B I *D sky130_fd_sc_hd__and2b_1
*I *357:Y O *D sky130_fd_sc_hd__o21ai_1
*CAP
1 *369:B1_N 0.000332426
2 *358:B 0.000263628
3 *357:Y 0
4 *83:4 0.000596054
5 *358:B *355:A1 0.000113697
6 *369:B1_N *352:C1 0.000104676
7 *369:B1_N *355:A1 0
8 *369:B1_N *357:B1 0.000113771
9 *369:B1_N *134:45 4.77719e-05
10 *356:C *358:B 2.50123e-05
11 *357:A2 *358:B 9.08126e-05
12 *357:A2 *369:B1_N 4.77757e-05
13 *60:20 *369:B1_N 1.52352e-05
*RES
1 *357:Y *83:4 1.6 
2 *83:4 *358:B 9.845 
3 *83:4 *369:B1_N 11.885 
*END

*D_NET *84 0.000188732
*CONN
*I *360:A I *D sky130_fd_sc_hd__xor2_1
*I *358:X O *D sky130_fd_sc_hd__and2b_1
*CAP
1 *360:A 9.43661e-05
2 *358:X 9.43661e-05
*RES
1 *358:X *360:A 4.7 
*END

*D_NET *85 0.00131101
*CONN
*I *360:B I *D sky130_fd_sc_hd__xor2_1
*I *359:X O *D sky130_fd_sc_hd__a32o_1
*CAP
1 *360:B 0.000503174
2 *359:X 0.000503174
3 *360:B *363:A2 4.78564e-05
4 *360:B *390:CLK 0.000207874
5 *353:B1 *360:B 4.89295e-05
6 *370:A2 *360:B 0
*RES
1 *359:X *360:B 15.045 
*END

*D_NET *86 0.00117415
*CONN
*I *363:A2 I *D sky130_fd_sc_hd__a21o_1
*I *360:X O *D sky130_fd_sc_hd__xor2_1
*CAP
1 *363:A2 0.000316041
2 *360:X 0.000316041
3 *363:A2 *363:B1 7.62018e-05
4 *363:A2 *390:CLK 8.01961e-05
5 *363:A2 *390:D 0.000150106
6 *363:A2 *121:74 0.00017459
7 *360:B *363:A2 4.78564e-05
8 *363:A1 *363:A2 1.31227e-05
*RES
1 *360:X *363:A2 14.025 
*END

*D_NET *87 0.000295465
*CONN
*I *362:B1 I *D sky130_fd_sc_hd__o211a_1
*I *361:X O *D sky130_fd_sc_hd__a21o_1
*CAP
1 *362:B1 4.08265e-05
2 *361:X 4.08265e-05
3 *362:B1 *362:A1 0.000133921
4 *362:B1 *362:A2 9.03508e-06
5 *362:B1 *135:17 7.08554e-05
*RES
1 *361:X *362:B1 4.7 
*END

*D_NET *88 0.00116674
*CONN
*I *363:B1 I *D sky130_fd_sc_hd__a21o_1
*I *362:X O *D sky130_fd_sc_hd__o211a_1
*CAP
1 *363:B1 0.000272834
2 *362:X 0.000272834
3 *363:B1 *95:12 0.000159654
4 *363:B1 *121:74 0.000137457
5 *358:A_N *363:B1 0.000161321
6 *363:A1 *363:B1 8.64421e-05
7 *363:A2 *363:B1 7.62018e-05
*RES
1 *362:X *363:B1 13.695 
*END

*D_NET *89 0.00165138
*CONN
*I *365:B I *D sky130_fd_sc_hd__xnor2_1
*I *380:B1 I *D sky130_fd_sc_hd__a21o_1
*I *364:X O *D sky130_fd_sc_hd__o31a_1
*CAP
1 *365:B 9.6469e-05
2 *380:B1 0
3 *364:X 0.000280332
4 *89:10 0.000376801
5 *365:B *365:A 2.69153e-05
6 *365:B *119:23 7.84822e-05
7 *89:10 *355:A2 1.14192e-05
8 *89:10 *117:54 3.93531e-05
9 *89:10 *118:8 7.03276e-05
10 *89:10 *121:10 3.0816e-05
11 *89:10 *121:12 1.28996e-05
12 *380:A2 *365:B 3.19343e-05
13 *380:A2 *89:10 0.000317244
14 *381:B *365:B 3.13346e-05
15 *401:A *89:10 0.000114649
16 *402:A *365:B 0.000132404
*RES
1 *364:X *89:10 9.855 
2 *89:10 *380:B1 3.6 
3 *89:10 *365:B 6.195 
*END

*D_NET *90 0.00151017
*CONN
*I *367:B I *D sky130_fd_sc_hd__or2_1
*I *366:B I *D sky130_fd_sc_hd__nand2_1
*I *365:Y O *D sky130_fd_sc_hd__xnor2_1
*CAP
1 *367:B 0.000173218
2 *366:B 7.93368e-05
3 *365:Y 0.000250691
4 *90:6 0.000503245
5 *366:B *374:B1 7.01303e-05
6 *366:B *122:16 9.10064e-06
7 *366:B *136:14 2.4002e-05
8 *367:B *367:A 5.2809e-05
9 *367:B *374:A1 5.29054e-05
10 *90:6 *374:A1 0.000192042
11 *90:6 *119:8 1.81918e-05
12 *402:A *90:6 8.45001e-05
*RES
1 *365:Y *90:6 4.81 
2 *90:6 *366:B 7.235 
3 *90:6 *367:B 4.51 
*END

*D_NET *91 0.00168757
*CONN
*I *377:B1 I *D sky130_fd_sc_hd__o31a_1
*I *368:A I *D sky130_fd_sc_hd__nand2_1
*I *366:Y O *D sky130_fd_sc_hd__nand2_1
*CAP
1 *377:B1 8.2739e-05
2 *368:A 0.000219548
3 *366:Y 0.000124419
4 *91:6 0.000426706
5 *368:A *368:B 1.30872e-05
6 *368:A *375:B1 4.66108e-05
7 *368:A *377:A2 0.000158337
8 *368:A *382:A 0.000322755
9 *368:A *93:10 0.000103464
10 *368:A *95:12 2.97561e-05
11 *377:B1 *371:B 3.70572e-05
12 *91:6 *366:A 2.86975e-05
13 *91:6 *382:A 2.75229e-05
14 *371:A *377:B1 1.9415e-05
15 *82:14 *368:A 3.446e-05
16 *82:14 *377:B1 2.65814e-06
17 *82:14 *91:6 1.03323e-05
*RES
1 *366:Y *91:6 3.43 
2 *91:6 *368:A 11.105 
3 *91:6 *377:B1 3.1 
*END

*D_NET *92 0.000354958
*CONN
*I *368:B I *D sky130_fd_sc_hd__nand2_1
*I *367:X O *D sky130_fd_sc_hd__or2_1
*CAP
1 *368:B 0.000109686
2 *367:X 0.000109686
3 *368:B *375:B1 8.52972e-05
4 *368:B *93:10 3.72007e-05
5 *368:A *368:B 1.30872e-05
*RES
1 *367:X *368:B 9.375 
*END

*D_NET *93 0.00105795
*CONN
*I *372:A I *D sky130_fd_sc_hd__xnor2_1
*I *377:A2 I *D sky130_fd_sc_hd__o31a_1
*I *368:Y O *D sky130_fd_sc_hd__nand2_1
*CAP
1 *372:A 0.000109583
2 *377:A2 5.56791e-05
3 *368:Y 8.69862e-05
4 *93:10 0.000252248
5 *93:10 *375:B1 4.66108e-05
6 *368:A *377:A2 0.000158337
7 *368:A *93:10 0.000103464
8 *368:B *93:10 3.72007e-05
9 *371:A *372:A 0.000115351
10 *371:A *377:A2 9.24881e-05
*RES
1 *368:Y *93:10 5.43 
2 *93:10 *377:A2 5.49 
3 *93:10 *372:A 5.88 
*END

*D_NET *94 0.000297527
*CONN
*I *370:B1 I *D sky130_fd_sc_hd__a31oi_1
*I *369:X O *D sky130_fd_sc_hd__a21bo_1
*CAP
1 *370:B1 4.52306e-05
2 *369:X 4.52306e-05
3 *370:B1 *116:12 0.000135037
4 *370:A2 *370:B1 9.86398e-06
5 *63:36 *370:B1 6.21647e-05
*RES
1 *369:X *370:B1 8.835 
*END

*D_NET *95 0.00283979
*CONN
*I *371:B I *D sky130_fd_sc_hd__nor2_1
*I *377:A3 I *D sky130_fd_sc_hd__o31a_1
*I *370:Y O *D sky130_fd_sc_hd__a31oi_1
*CAP
1 *371:B 0.000371239
2 *377:A3 0
3 *370:Y 0.000529611
4 *95:12 0.000900851
5 *371:B *372:B 8.52883e-05
6 *371:B *375:A2 2.86975e-05
7 *371:B *121:74 0
8 *95:12 *352:C1 0.000540613
9 *95:12 *116:12 5.10097e-05
10 *95:12 *116:14 2.49909e-05
11 *95:12 *116:40 8.73389e-06
12 *358:A_N *95:12 4.73816e-05
13 *363:B1 *95:12 0.000159654
14 *368:A *95:12 2.97561e-05
15 *371:A *371:B 6.72833e-06
16 *377:A1 *371:B 1.8181e-05
17 *377:B1 *371:B 3.70572e-05
*RES
1 *370:Y *95:12 16.955 
2 *95:12 *377:A3 1.6 
3 *95:12 *371:B 11.975 
*END

*D_NET *96 0.000401072
*CONN
*I *372:B I *D sky130_fd_sc_hd__xnor2_1
*I *371:Y O *D sky130_fd_sc_hd__nor2_1
*CAP
1 *372:B 5.16661e-05
2 *371:Y 5.16661e-05
3 *372:B *375:A2 1.52352e-05
4 *371:A *372:B 0.000197216
5 *371:B *372:B 8.52883e-05
*RES
1 *371:Y *372:B 5.03 
*END

*D_NET *97 0.000420209
*CONN
*I *375:A2 I *D sky130_fd_sc_hd__a21o_1
*I *372:Y O *D sky130_fd_sc_hd__xnor2_1
*CAP
1 *375:A2 0.000182295
2 *372:Y 0.000182295
3 *371:A *375:A2 1.16854e-05
4 *371:B *375:A2 2.86975e-05
5 *372:B *375:A2 1.52352e-05
*RES
1 *372:Y *375:A2 9.72 
*END

*D_NET *98 0.000321302
*CONN
*I *374:B1 I *D sky130_fd_sc_hd__o211a_1
*I *373:X O *D sky130_fd_sc_hd__a21o_1
*CAP
1 *374:B1 5.84621e-05
2 *373:X 5.84621e-05
3 *374:B1 *136:14 0.000134248
4 *366:B *374:B1 7.01303e-05
*RES
1 *373:X *374:B1 8.835 
*END

*D_NET *99 0.00103422
*CONN
*I *375:B1 I *D sky130_fd_sc_hd__a21o_1
*I *374:X O *D sky130_fd_sc_hd__o211a_1
*CAP
1 *375:B1 0.000368339
2 *374:X 0.000368339
3 *375:B1 *382:A 9.21008e-05
4 *375:B1 *391:D 2.69272e-05
5 *368:A *375:B1 4.66108e-05
6 *368:B *375:B1 8.52972e-05
7 *93:10 *375:B1 4.66108e-05
*RES
1 *374:X *375:B1 13.275 
*END

*D_NET *100 0.00183857
*CONN
*I *379:B I *D sky130_fd_sc_hd__nor2_1
*I *384:A2 I *D sky130_fd_sc_hd__o221a_1
*I *376:X O *D sky130_fd_sc_hd__and2_1
*CAP
1 *379:B 0.000229733
2 *384:A2 0.000289834
3 *376:X 0.000124339
4 *100:10 0.000643906
5 *379:B *378:A 0.000208104
6 *379:B *378:B 5.288e-05
7 *379:B *383:A 6.4428e-05
8 *384:A2 *309:A0 2.25954e-05
9 *384:A2 *382:A 5.88353e-05
10 *100:10 *378:B 3.64998e-06
11 *100:10 *383:A 7.03276e-05
12 *384:B1 *384:A2 6.99384e-05
*RES
1 *376:X *100:10 5.265 
2 *100:10 *384:A2 7.425 
3 *100:10 *379:B 8.355 
*END

*D_NET *101 0.00218764
*CONN
*I *382:A I *D sky130_fd_sc_hd__xnor2_1
*I *377:X O *D sky130_fd_sc_hd__o31a_1
*CAP
1 *382:A 0.000606812
2 *377:X 0.000606812
3 *382:A *383:A 0
4 *382:A *122:10 0
5 *382:A *122:136 0.000225622
6 *368:A *382:A 0.000322755
7 *375:B1 *382:A 9.21008e-05
8 *384:A2 *382:A 5.88353e-05
9 *384:B1 *382:A 1.14169e-05
10 *384:C1 *382:A 0.000160314
11 *82:14 *382:A 7.54478e-05
12 *91:6 *382:A 2.75229e-05
*RES
1 *377:X *382:A 20.235 
*END

*D_NET *102 0.000426264
*CONN
*I *385:D I *D sky130_fd_sc_hd__dfxtp_1
*I *310:X O *D sky130_fd_sc_hd__clkbuf_1
*CAP
1 *385:D 0.000106485
2 *310:X 0.000106485
3 *385:D *414:A 7.41855e-05
4 *385:D *112:34 9.01686e-05
5 *385:D *138:10 4.89395e-05
*RES
1 *310:X *385:D 9.67875 
*END

*D_NET *103 0.00127493
*CONN
*I *386:D I *D sky130_fd_sc_hd__dfxtp_1
*I *322:X O *D sky130_fd_sc_hd__o211a_1
*CAP
1 *386:D 0.000466012
2 *322:X 0.000466012
3 *386:D *112:34 6.12027e-05
4 *318:A_N *386:D 0.000115343
5 *318:B *386:D 7.21296e-06
6 *322:B1 *386:D 8.92833e-05
7 *41:10 *386:D 6.98643e-05
*RES
1 *322:X *386:D 15.12 
*END

*D_NET *104 0.000308184
*CONN
*I *387:D I *D sky130_fd_sc_hd__dfxtp_1
*I *331:X O *D sky130_fd_sc_hd__o211a_1
*CAP
1 *387:D 0.000154092
2 *331:X 0.000154092
*RES
1 *331:X *387:D 5.25875 
*END

*D_NET *105 0.000568559
*CONN
*I *388:D I *D sky130_fd_sc_hd__dfxtp_1
*I *344:X O *D sky130_fd_sc_hd__a21o_1
*CAP
1 *388:D 0.000284279
2 *344:X 0.000284279
*RES
1 *344:X *388:D 11.2238 
*END

*D_NET *106 0.000977621
*CONN
*I *389:D I *D sky130_fd_sc_hd__dfxtp_1
*I *353:X O *D sky130_fd_sc_hd__a21o_1
*CAP
1 *389:D 0.000204764
2 *353:X 0.000204764
3 *389:D *342:B1 0.000280152
4 *389:D *111:16 0.00016031
5 *63:28 *389:D 0.000127631
*RES
1 *353:X *389:D 12.0037 
*END

*D_NET *107 0.000474832
*CONN
*I *390:D I *D sky130_fd_sc_hd__dfxtp_1
*I *363:X O *D sky130_fd_sc_hd__a21o_1
*CAP
1 *390:D 0.000133327
2 *363:X 0.000133327
3 *390:D *390:CLK 5.80708e-05
4 *363:A2 *390:D 0.000150106
*RES
1 *363:X *390:D 9.57375 
*END

*D_NET *108 0.000907147
*CONN
*I *391:D I *D sky130_fd_sc_hd__dfxtp_1
*I *375:X O *D sky130_fd_sc_hd__a21o_1
*CAP
1 *391:D 0.000424599
2 *375:X 0.000424599
3 *391:D *112:8 2.6149e-05
4 *375:A1 *391:D 4.87234e-06
5 *375:B1 *391:D 2.69272e-05
*RES
1 *375:X *391:D 13.0238 
*END

*D_NET *109 0.000336676
*CONN
*I *392:D I *D sky130_fd_sc_hd__dfxtp_1
*I *384:X O *D sky130_fd_sc_hd__o221a_1
*CAP
1 *392:D 1.94885e-05
2 *384:X 1.94885e-05
3 *392:D *309:A0 0.000148849
4 *384:A1 *392:D 0.000148849
*RES
1 *384:X *392:D 4.56875 
*END

*D_NET *110 0.00376204
*CONN
*I *395:A I *D sky130_fd_sc_hd__clkbuf_16
*I *394:A I *D sky130_fd_sc_hd__clkbuf_16
*I *393:X O *D sky130_fd_sc_hd__clkbuf_16
*CAP
1 *395:A 0.0005577
2 *394:A 0.000474174
3 *393:X 0
4 *110:6 0.00103187
5 *394:A *138:39 0.000118527
6 *395:A *321:B1 0.000110486
7 *395:A *112:8 5.42883e-05
8 *395:A *138:33 0.000282502
9 *395:A *138:35 0.000243532
10 *395:A *138:39 2.14129e-05
11 *307:B1 *395:A 7.1377e-05
12 *310:A *395:A 4.77769e-05
13 *335:A1 *394:A 4.77757e-05
14 *335:A2 *394:A 4.89295e-05
15 *36:38 *394:A 0.000176792
16 *36:44 *394:A 0.000474894
17 *37:40 *395:A 0
*RES
1 *393:X *110:6 3.6 
2 *110:6 *394:A 13.335 
3 *110:6 *395:A 14.295 
*END

*D_NET *111 0.00601566
*CONN
*I *387:CLK I *D sky130_fd_sc_hd__dfxtp_1
*I *388:CLK I *D sky130_fd_sc_hd__dfxtp_1
*I *390:CLK I *D sky130_fd_sc_hd__dfxtp_1
*I *389:CLK I *D sky130_fd_sc_hd__dfxtp_1
*I *394:X O *D sky130_fd_sc_hd__clkbuf_16
*CAP
1 *387:CLK 0.000481276
2 *388:CLK 0
3 *390:CLK 0.000495494
4 *389:CLK 0.000156778
5 *394:X 0
6 *111:16 0.00106844
7 *111:12 0.000547151
8 *111:4 0.000612263
9 *387:CLK *339:A 0.000113333
10 *389:CLK *342:B1 4.77757e-05
11 *390:CLK *342:B1 0
12 *111:16 *337:A 0.00011688
13 *111:16 *343:A1 0.0002318
14 *111:16 *343:C1 0.000191343
15 *111:16 *133:14 3.73456e-05
16 *329:A2 *387:CLK 3.72103e-05
17 *337:B *111:16 9.19786e-05
18 *337:C *111:16 3.06789e-05
19 *338:B *111:12 5.1875e-05
20 *341:B *387:CLK 0.000160338
21 *341:B *111:12 0.000108983
22 *343:B1 *111:16 4.77757e-05
23 *348:B1 *111:12 0.000112702
24 *353:A1 *111:16 0.000123789
25 *353:A2 *389:CLK 3.79532e-05
26 *353:B1 *111:16 4.77757e-05
27 *359:A3 *389:CLK 2.50751e-05
28 *359:A3 *390:CLK 7.40338e-05
29 *359:A3 *111:16 2.01504e-05
30 *360:B *390:CLK 0.000207874
31 *363:A2 *390:CLK 8.01961e-05
32 *389:D *111:16 0.00016031
33 *390:D *390:CLK 5.80708e-05
34 *393:A *387:CLK 0.000178507
35 *43:44 *390:CLK 7.65493e-05
36 *52:10 *387:CLK 0
37 *52:20 *387:CLK 0.000135026
38 *63:28 *389:CLK 4.89362e-05
*RES
1 *394:X *111:4 1.6 
2 *111:4 *111:12 6.52 
3 *111:12 *111:16 12.11 
4 *111:16 *389:CLK 6.195 
5 *111:16 *390:CLK 13.545 
6 *111:12 *388:CLK 1.6 
7 *111:4 *387:CLK 15.86 
*END

*D_NET *112 0.00351093
*CONN
*I *386:CLK I *D sky130_fd_sc_hd__dfxtp_1
*I *385:CLK I *D sky130_fd_sc_hd__dfxtp_1
*I *391:CLK I *D sky130_fd_sc_hd__dfxtp_1
*I *392:CLK I *D sky130_fd_sc_hd__dfxtp_1
*I *395:X O *D sky130_fd_sc_hd__clkbuf_16
*CAP
1 *386:CLK 3.34704e-05
2 *385:CLK 0
3 *391:CLK 0
4 *392:CLK 0.000167528
5 *395:X 0
6 *112:34 0.000291266
7 *112:8 0.00117747
8 *112:4 0.00126774
9 *112:8 *420:A 4.77769e-05
10 *112:8 *138:10 4.60123e-05
11 *112:34 *138:10 0.000147671
12 *310:A *112:8 0.000100184
13 *385:D *112:34 9.01686e-05
14 *386:D *112:34 6.12027e-05
15 *391:D *112:8 2.6149e-05
16 *395:A *112:8 5.42883e-05
*RES
1 *395:X *112:4 1.6 
2 *112:4 *112:8 11.76 
3 *112:8 *392:CLK 8.285 
4 *112:8 *391:CLK 1.6 
5 *112:4 *112:34 8.245 
6 *112:34 *385:CLK 1.6 
7 *112:34 *386:CLK 2.05 
*END

*D_NET *113 0.0019758
*CONN
*I *311:A I *D sky130_fd_sc_hd__or2b_1
*I *307:A1 I *D sky130_fd_sc_hd__o21a_1
*I *308:A I *D sky130_fd_sc_hd__nand2_1
*I *396:X O *D sky130_fd_sc_hd__buf_1
*CAP
1 *311:A 4.0129e-05
2 *307:A1 0
3 *308:A 9.99975e-05
4 *396:X 0.000452246
5 *113:16 0.000151721
6 *113:12 0.000544099
7 *308:A *307:A2 4.66108e-05
8 *308:A *308:B 2.94433e-05
9 *308:A *138:20 0.000232403
10 *308:A *138:77 0
11 *113:12 *114:12 0
12 *113:12 *138:10 0.000160503
13 *113:12 *138:20 6.75449e-05
14 *113:16 *307:A2 1.08758e-05
15 *113:16 *311:B_N 3.57349e-05
16 result[0] *113:12 1.18961e-06
17 *307:B1 *308:A 4.89295e-05
18 *309:A1 *308:A 4.85359e-05
19 *396:A *113:12 5.83121e-06
*RES
1 *396:X *113:12 12.62 
2 *113:12 *113:16 1.065 
3 *113:16 *308:A 4.48 
4 *113:16 *307:A1 1.6 
5 *113:12 *311:A 2.05 
*END

*D_NET *114 0.00497427
*CONN
*I *322:A1 I *D sky130_fd_sc_hd__o211a_1
*I *321:A2 I *D sky130_fd_sc_hd__a211o_1
*I *332:B I *D sky130_fd_sc_hd__or3_2
*I *324:A2 I *D sky130_fd_sc_hd__o21a_1
*I *314:B I *D sky130_fd_sc_hd__and3_1
*I *315:B1 I *D sky130_fd_sc_hd__a21oi_1
*I *397:X O *D sky130_fd_sc_hd__dlymetal6s2s_1
*CAP
1 *322:A1 0
2 *321:A2 2.25527e-05
3 *332:B 0
4 *324:A2 0
5 *314:B 0.000128329
6 *315:B1 1.38334e-05
7 *397:X 0.000551578
8 *114:45 0.000375338
9 *114:39 0.00054029
10 *114:20 0.000388744
11 *114:16 0.000189868
12 *114:12 0.000637264
13 *314:B *314:A 1.1392e-05
14 *314:B *122:81 0.000270761
15 *315:B1 *321:B1 4.77719e-05
16 *321:A2 *330:A1 3.1914e-05
17 *321:A2 *121:91 1.75875e-05
18 *114:16 *330:A1 9.56017e-06
19 *114:20 *330:A1 5.05774e-05
20 *114:39 *330:A1 0.000395333
21 *114:39 *138:20 0
22 *114:45 *324:A1 0.000158965
23 *114:45 *332:A 5.01565e-05
24 *316:A1 *114:39 4.99581e-05
25 *318:B *114:12 0.000157968
26 *319:B *114:12 1.71824e-05
27 *320:A *114:12 3.86252e-05
28 *320:A *114:16 1.87977e-05
29 *322:A2 *114:12 9.09788e-06
30 *322:B1 *114:16 5.29975e-05
31 *322:C1 *114:16 4.77769e-05
32 *325:B *114:45 4.66108e-05
33 *37:16 *321:A2 1.91021e-05
34 *37:16 *114:16 0.000194365
35 *41:10 *114:12 4.70919e-05
36 *43:8 *314:B 6.04943e-05
37 *43:10 *314:B 5.73362e-05
38 *43:12 *314:B 2.7881e-05
39 *44:10 *114:39 6.88421e-05
40 *45:6 *315:B1 1.77595e-05
41 *60:12 *114:39 2.84864e-05
42 *60:12 *114:45 0.00012208
43 *113:12 *114:12 0
*RES
1 *397:X *114:12 15.005 
2 *114:12 *114:16 2.535 
3 *114:16 *114:20 3.38 
4 *114:20 *315:B1 4.05 
5 *114:20 *114:39 8.21 
6 *114:39 *114:45 4.02 
7 *114:45 *314:B 9.215 
8 *114:45 *324:A2 1.6 
9 *114:39 *332:B 1.6 
10 *114:16 *321:A2 2.38 
11 *114:12 *322:A1 1.6 
*END

*D_NET *115 0.00355312
*CONN
*I *332:C I *D sky130_fd_sc_hd__or3_2
*I *331:A1 I *D sky130_fd_sc_hd__o211a_1
*I *325:A I *D sky130_fd_sc_hd__xnor2_1
*I *330:A2 I *D sky130_fd_sc_hd__a211o_1
*I *398:X O *D sky130_fd_sc_hd__buf_1
*CAP
1 *332:C 0.000236804
2 *331:A1 0
3 *325:A 0.000332148
4 *330:A2 0
5 *398:X 0.000658235
6 *115:38 0.000236804
7 *115:16 0.000450767
8 *115:10 0.000776854
9 *325:A *330:A1 4.77757e-05
10 *325:A *419:A 7.12746e-05
11 *332:C *324:A1 0
12 *115:16 *329:B1 8.33066e-06
13 *115:16 *419:A 0.000123969
14 *330:C1 *325:A 0.000153547
15 *331:A2 *115:10 0.000108329
16 *331:A2 *115:16 9.50342e-06
17 *331:B1 *115:16 8.20095e-05
18 *331:C1 *325:A 4.89295e-05
19 *331:C1 *115:16 4.40742e-05
20 *393:A *115:10 4.40812e-05
21 *393:A *115:16 7.6387e-05
22 *43:44 *325:A 1.08758e-05
23 *46:16 *115:10 2.87722e-05
24 *60:12 *332:C 3.64998e-06
*RES
1 *398:X *115:10 11.64 
2 *115:10 *115:16 5.54 
3 *115:16 *330:A2 1.6 
4 *115:16 *325:A 7.63 
5 *115:10 *115:38 2 
6 *115:38 *331:A1 1.6 
7 *115:38 *332:C 4.84 
*END

*D_NET *116 0.00701123
*CONN
*I *334:A_N I *D sky130_fd_sc_hd__nand3b_1
*I *333:B1_N I *D sky130_fd_sc_hd__a21bo_1
*I *343:A1 I *D sky130_fd_sc_hd__o211a_1
*I *342:A1 I *D sky130_fd_sc_hd__a21o_1
*I *355:A1 I *D sky130_fd_sc_hd__o311a_1
*I *345:A1 I *D sky130_fd_sc_hd__o21a_1
*I *399:X O *D sky130_fd_sc_hd__dlymetal6s2s_1
*CAP
1 *334:A_N 0.000121648
2 *333:B1_N 0
3 *343:A1 0.000283617
4 *342:A1 0
5 *355:A1 0.00019066
6 *345:A1 3.155e-05
7 *399:X 0.000410729
8 *116:72 0.000153906
9 *116:49 0.000495603
10 *116:40 0.000738741
11 *116:14 0.000465644
12 *116:12 0.00121318
13 *334:A_N *343:C1 3.76596e-05
14 *343:A1 *343:C1 3.11635e-05
15 *343:A1 *133:36 0.000136963
16 *116:12 *352:C1 4.4796e-05
17 *116:72 *343:C1 3.4222e-05
18 *333:A1 *334:A_N 0.000151572
19 *334:B *334:A_N 0.000320064
20 *343:B1 *343:A1 1.50383e-05
21 *345:A2 *355:A1 6.10863e-05
22 *349:A *116:40 0.000160604
23 *349:B *116:40 2.6306e-05
24 *356:B *355:A1 0.000202581
25 *357:A2 *355:A1 2.51754e-05
26 *358:B *355:A1 0.000113697
27 *369:B1_N *355:A1 0
28 *370:A3 *116:40 2.21006e-05
29 *370:B1 *116:12 0.000135037
30 *399:A *116:12 0.00012657
31 *36:44 *334:A_N 1.73877e-05
32 *36:44 *343:A1 0.000101073
33 *36:44 *116:72 2.67022e-05
34 *43:95 *355:A1 2.56518e-05
35 *60:16 *334:A_N 0.000103841
36 *60:20 *334:A_N 4.15354e-05
37 *63:36 *116:12 2.87133e-05
38 *73:21 *116:12 0.000177525
39 *75:18 *116:40 0.000107898
40 *75:18 *116:49 0.000263616
41 *75:20 *116:40 5.08466e-05
42 *95:12 *116:12 5.10097e-05
43 *95:12 *116:14 2.49909e-05
44 *95:12 *116:40 8.73389e-06
45 *111:16 *343:A1 0.0002318
*RES
1 *399:X *116:12 14 
2 *116:12 *116:14 3.555 
3 *116:14 *345:A1 2.05 
4 *116:14 *355:A1 10.34 
5 *116:12 *116:40 7.275 
6 *116:40 *342:A1 1.6 
7 *116:40 *116:49 4.52 
8 *116:49 *343:A1 13.345 
9 *116:49 *116:72 0.87 
10 *116:72 *333:B1_N 3.6 
11 *116:72 *334:A_N 8.04 
*END

*D_NET *117 0.00308738
*CONN
*I *355:A2 I *D sky130_fd_sc_hd__o311a_1
*I *364:A1 I *D sky130_fd_sc_hd__o31a_1
*I *354:A1 I *D sky130_fd_sc_hd__a211oi_1
*I *352:A1 I *D sky130_fd_sc_hd__o211a_1
*I *351:A1 I *D sky130_fd_sc_hd__a21o_1
*I *346:A I *D sky130_fd_sc_hd__xnor2_1
*I *400:X O *D sky130_fd_sc_hd__clkbuf_2
*CAP
1 *355:A2 0.000243698
2 *364:A1 0
3 *354:A1 0.000101856
4 *352:A1 0.000204211
5 *351:A1 0
6 *346:A 0.000110392
7 *400:X 0
8 *117:54 0.000362532
9 *117:25 0.000261476
10 *117:10 0.000337219
11 *117:8 0.000325432
12 *117:6 0.000172849
13 *352:A1 *351:A2 6.53875e-05
14 *352:A1 *134:32 9.12671e-06
15 *352:A1 *134:45 2.68526e-05
16 *355:A2 *355:C1 6.13176e-05
17 *117:25 *351:A2 1.79098e-05
18 *346:B *346:A 7.40338e-05
19 *346:B *117:10 8.87378e-05
20 *352:B1 *352:A1 7.27717e-05
21 *354:A2 *354:A1 4.82919e-05
22 *364:A3 *355:A2 6.07575e-06
23 *364:A3 *117:8 2.52026e-05
24 *364:A3 *117:54 9.18547e-06
25 *364:B1 *355:A2 4.89295e-05
26 *400:A *117:8 0
27 *400:A *117:10 0
28 *401:A *117:54 0.000124518
29 *43:80 *355:A2 4.77807e-05
30 *43:95 *355:A2 4.77769e-05
31 *72:19 *117:8 4.39734e-05
32 *72:19 *117:10 9.90715e-05
33 *89:10 *355:A2 1.14192e-05
34 *89:10 *117:54 3.93531e-05
*RES
1 *400:X *117:6 3.6 
2 *117:6 *117:8 1.38 
3 *117:8 *117:10 3.93 
4 *117:10 *346:A 5.685 
5 *117:10 *117:25 2.795 
6 *117:25 *351:A1 1.6 
7 *117:25 *352:A1 5.17 
8 *117:8 *354:A1 4.74 
9 *117:6 *117:54 4.43 
10 *117:54 *364:A1 1.6 
11 *117:54 *355:A2 5.53 
*END

*D_NET *118 0.00259695
*CONN
*I *362:A1 I *D sky130_fd_sc_hd__o211a_1
*I *361:A1 I *D sky130_fd_sc_hd__a21o_1
*I *355:C1 I *D sky130_fd_sc_hd__o311a_1
*I *364:A2 I *D sky130_fd_sc_hd__o31a_1
*I *354:C1 I *D sky130_fd_sc_hd__a211oi_1
*I *401:X O *D sky130_fd_sc_hd__buf_1
*CAP
1 *362:A1 0.00027553
2 *361:A1 0
3 *355:C1 9.73006e-05
4 *364:A2 0
5 *354:C1 8.56176e-05
6 *401:X 0
7 *118:37 0.000389748
8 *118:21 9.73006e-05
9 *118:8 0.000142151
10 *118:4 0.000170751
11 *354:C1 *121:12 0.000177537
12 *362:A1 *361:B1 8.46768e-05
13 *362:A1 *362:A2 9.03508e-06
14 *362:A1 *135:17 3.93587e-05
15 *362:A1 *135:28 1.28131e-05
16 *118:8 *121:12 0.000133329
17 *118:37 *361:B1 0.000122801
18 *118:37 *135:8 1.19928e-05
19 *354:A2 *354:C1 0.000122699
20 *354:B1 *354:C1 8.35106e-05
21 *355:A2 *355:C1 6.13176e-05
22 *362:B1 *362:A1 0.000133921
23 *364:A3 *354:C1 0.000114551
24 *364:A3 *355:C1 2.49909e-05
25 *364:B1 *355:C1 4.89295e-05
26 *401:A *354:C1 2.57991e-05
27 *401:A *118:8 3.0042e-05
28 *72:19 *354:C1 3.09164e-05
29 *89:10 *118:8 7.03276e-05
*RES
1 *401:X *118:4 1.6 
2 *118:4 *118:8 3.635 
3 *118:8 *354:C1 6.885 
4 *118:8 *118:21 2 
5 *118:21 *364:A2 1.6 
6 *118:21 *355:C1 3.445 
7 *118:4 *118:37 1.485 
8 *118:37 *361:A1 1.6 
9 *118:37 *362:A1 5.425 
*END

*D_NET *119 0.0017959
*CONN
*I *374:A1 I *D sky130_fd_sc_hd__o211a_1
*I *380:A1 I *D sky130_fd_sc_hd__a21o_1
*I *373:A1 I *D sky130_fd_sc_hd__a21o_1
*I *365:A I *D sky130_fd_sc_hd__xnor2_1
*I *402:X O *D sky130_fd_sc_hd__buf_1
*CAP
1 *374:A1 0.000108639
2 *380:A1 0
3 *373:A1 4.54653e-05
4 *365:A 0.000115369
5 *402:X 0
6 *119:23 0.000220093
7 *119:8 0.000386208
8 *119:4 0.00020485
9 *373:A1 *373:A2 2.86975e-05
10 *373:A1 *373:B1 0.000122801
11 *374:A1 *367:A 1.52352e-05
12 *374:A1 *374:A2 9.13949e-06
13 *374:A1 *136:36 2.97593e-05
14 *119:23 *122:16 0
15 *365:B *365:A 2.69153e-05
16 *365:B *119:23 7.84822e-05
17 *367:B *374:A1 5.29054e-05
18 *380:A2 *373:A1 3.89021e-05
19 *380:A2 *119:23 3.05727e-05
20 *402:A *365:A 2.747e-05
21 *402:A *119:8 4.41619e-05
22 *90:6 *374:A1 0.000192042
23 *90:6 *119:8 1.81918e-05
*RES
1 *402:X *119:4 1.6 
2 *119:4 *119:8 2.01 
3 *119:8 *365:A 3.445 
4 *119:8 *119:23 6.655 
5 *119:23 *373:A1 3.1 
6 *119:23 *380:A1 1.6 
7 *119:4 *374:A1 4.39 
*END

*D_NET *120 0.00167339
*CONN
*I *378:A I *D sky130_fd_sc_hd__nor2_1
*I *376:A I *D sky130_fd_sc_hd__and2_1
*I *403:X O *D sky130_fd_sc_hd__clkbuf_1
*CAP
1 *378:A 0.000208831
2 *376:A 0.000248677
3 *403:X 9.68138e-05
4 *120:6 0.000554322
5 *376:A *137:8 4.77757e-05
6 *379:A *378:A 2.68464e-05
7 *379:B *378:A 0.000208104
8 *381:A *376:A 4.23802e-05
9 *381:A *378:A 7.11235e-06
10 *381:A *120:6 3.52106e-05
11 *383:B *376:A 8.80323e-05
12 *30:10 *376:A 2.39947e-05
13 *30:10 *378:A 8.52883e-05
*RES
1 *403:X *120:6 3.085 
2 *120:6 *376:A 10.49 
3 *120:6 *378:A 5.875 
*END

*D_NET *121 0.0127351
*CONN
*I *306:B I *D sky130_fd_sc_hd__or2_1
*I *330:A1 I *D sky130_fd_sc_hd__a211o_1
*I *321:A1 I *D sky130_fd_sc_hd__a211o_1
*I *312:B_N I *D sky130_fd_sc_hd__or2b_1
*I *373:B1 I *D sky130_fd_sc_hd__a21o_1
*I *361:B1 I *D sky130_fd_sc_hd__a21o_1
*I *351:B1 I *D sky130_fd_sc_hd__a21o_1
*I *342:B1 I *D sky130_fd_sc_hd__a21o_1
*I *404:X O *D sky130_fd_sc_hd__clkbuf_2
*CAP
1 *306:B 0
2 *330:A1 0.000503111
3 *321:A1 0
4 *312:B_N 0
5 *373:B1 0.00024899
6 *361:B1 6.32567e-05
7 *351:B1 0
8 *342:B1 0.00106861
9 *404:X 9.73184e-05
10 *121:91 0.000721408
11 *121:81 0.000344414
12 *121:74 0.00112547
13 *121:12 0.00142475
14 *121:10 0.000517102
15 *121:8 0.000346687
16 *121:6 0.00109667
17 *330:A1 *330:B1 9.12494e-06
18 *330:A1 *419:A 4.89295e-05
19 *342:B1 *343:C1 7.62001e-05
20 *342:B1 *347:A 4.77769e-05
21 *342:B1 *352:C1 3.75882e-06
22 *342:B1 *134:12 0.000196669
23 *361:B1 *361:A2 3.50152e-06
24 *361:B1 *135:8 4.8854e-05
25 *361:B1 *135:17 6.32423e-05
26 *373:B1 *366:A 0
27 *373:B1 *373:A2 3.18594e-05
28 *373:B1 *122:16 0
29 *121:12 *352:C1 2.85135e-05
30 *121:74 *356:A 3.61981e-05
31 *121:81 *312:A 2.93447e-05
32 *121:91 *305:A 0.000134379
33 *313:A *121:81 4.77807e-05
34 *320:A *330:A1 0.000177326
35 *320:A *121:91 3.10331e-05
36 *321:A2 *330:A1 3.1914e-05
37 *321:A2 *121:91 1.75875e-05
38 *322:A2 *330:A1 1.57817e-05
39 *322:C1 *330:A1 2.69153e-05
40 *325:A *330:A1 4.77757e-05
41 *331:A2 *330:A1 0
42 *331:C1 *330:A1 9.0191e-05
43 *345:A2 *121:12 0
44 *345:B1 *121:12 4.91189e-05
45 *346:B *342:B1 7.50642e-05
46 *346:B *121:12 6.80167e-05
47 *354:C1 *121:12 0.000177537
48 *355:A3 *121:12 0
49 *356:B *373:B1 0
50 *356:B *121:10 0
51 *356:B *121:74 4.66108e-05
52 *356:C *121:74 7.08493e-05
53 *358:A_N *121:74 8.73389e-06
54 *362:A1 *361:B1 8.46768e-05
55 *363:A1 *121:74 2.20732e-05
56 *363:A2 *121:74 0.00017459
57 *363:B1 *121:74 0.000137457
58 *371:B *121:74 0
59 *373:A1 *373:B1 0.000122801
60 *380:A2 *373:B1 0.000156155
61 *380:A2 *121:10 0.000113509
62 *389:CLK *342:B1 4.77757e-05
63 *389:D *342:B1 0.000280152
64 *390:CLK *342:B1 0
65 *36:15 *121:91 8.41384e-05
66 *36:17 *121:91 5.69216e-05
67 *36:21 *121:74 0
68 *36:21 *121:91 4.28112e-06
69 *36:96 *121:91 0.000316094
70 *37:16 *330:A1 9.14508e-06
71 *37:16 *121:91 0.000305061
72 *46:16 *330:A1 2.41231e-05
73 *60:12 *330:A1 0.000137228
74 *63:28 *342:B1 0.000204865
75 *72:19 *121:12 0.000120496
76 *73:8 *342:B1 4.57056e-05
77 *73:21 *342:B1 0.000129536
78 *74:8 *342:B1 0.000104653
79 *89:10 *121:10 3.0816e-05
80 *89:10 *121:12 1.28996e-05
81 *114:16 *330:A1 9.56017e-06
82 *114:20 *330:A1 5.05774e-05
83 *114:39 *330:A1 0.000395333
84 *118:8 *121:12 0.000133329
85 *118:37 *361:B1 0.000122801
*RES
1 *404:X *121:6 2.74 
2 *121:6 *121:8 2 
3 *121:8 *121:10 2.145 
4 *121:10 *121:12 8.01 
5 *121:12 *342:B1 26.59 
6 *121:12 *351:B1 3.6 
7 *121:10 *361:B1 5.79 
8 *121:8 *373:B1 7.935 
9 *121:6 *121:74 19.6 
10 *121:74 *312:B_N 1.6 
11 *121:74 *121:81 2.175 
12 *121:81 *121:91 10.585 
13 *121:91 *321:A1 1.6 
14 *121:91 *330:A1 17.48 
15 *121:81 *306:B 1.6 
*END

*D_NET *122 0.0170954
*CONN
*I *309:A0 I *D sky130_fd_sc_hd__mux2_1
*I *384:B2 I *D sky130_fd_sc_hd__o221a_1
*I *383:A I *D sky130_fd_sc_hd__nand2_1
*I *374:C1 I *D sky130_fd_sc_hd__o211a_1
*I *362:C1 I *D sky130_fd_sc_hd__o211a_1
*I *305:A I *D sky130_fd_sc_hd__inv_2
*I *312:A I *D sky130_fd_sc_hd__or2b_1
*I *329:B1 I *D sky130_fd_sc_hd__a21o_1
*I *343:C1 I *D sky130_fd_sc_hd__o211a_1
*I *352:C1 I *D sky130_fd_sc_hd__o211a_1
*I *405:X O *D sky130_fd_sc_hd__buf_2
*CAP
1 *309:A0 0.000589795
2 *384:B2 0
3 *383:A 0.000296525
4 *374:C1 0
5 *362:C1 0
6 *305:A 0.000128159
7 *312:A 6.21392e-05
8 *329:B1 0.000741292
9 *343:C1 0.00034973
10 *352:C1 0.000574773
11 *405:X 0.000301446
12 *122:136 0.001128
13 *122:81 0.000555449
14 *122:47 0.00117828
15 *122:45 0.00134928
16 *122:22 0.00179324
17 *122:16 0.000748906
18 *122:10 0.000611714
19 *122:8 0.000480928
20 *122:6 0.000839654
21 *309:A0 *421:A 4.89362e-05
22 *329:B1 *330:B1 0.000159144
23 *329:B1 *419:A 8.41384e-05
24 *343:C1 *133:14 0.000121036
25 *343:C1 *133:36 2.97608e-05
26 *352:C1 *351:A2 0.000122815
27 *352:C1 *357:B1 0.000107499
28 *352:C1 *134:25 3.60024e-06
29 *352:C1 *134:45 8.13484e-05
30 *383:A *378:B 0.000191136
31 *122:10 *136:10 8.33575e-05
32 *122:10 *136:14 3.12855e-05
33 *122:16 *136:14 0.000177148
34 *307:B1 *309:A0 3.64998e-06
35 *313:A *312:A 5.83121e-06
36 *313:A *122:81 0.000110494
37 *314:B *122:81 0.000270761
38 *331:B1 *329:B1 3.64998e-06
39 *333:A1 *343:C1 1.01661e-05
40 *334:A_N *343:C1 3.76596e-05
41 *342:B1 *343:C1 7.62001e-05
42 *342:B1 *352:C1 3.75882e-06
43 *343:A1 *343:C1 3.11635e-05
44 *353:A1 *343:C1 4.02438e-05
45 *353:B1 *352:C1 0.00019723
46 *356:B *122:16 0.000165507
47 *356:B *122:22 1.96913e-05
48 *356:C *122:16 0
49 *358:A_N *352:C1 0.000125828
50 *358:A_N *122:16 0
51 *366:B *122:16 9.10064e-06
52 *369:B1_N *352:C1 0.000104676
53 *373:B1 *122:16 0
54 *379:B *383:A 6.4428e-05
55 *380:A2 *122:16 0
56 *381:B *383:A 0
57 *381:B *122:10 0
58 *382:A *383:A 0
59 *382:A *122:10 0
60 *382:A *122:136 0.000225622
61 *382:B *383:A 4.66108e-05
62 *384:A1 *309:A0 0.000658488
63 *384:A2 *309:A0 2.25954e-05
64 *384:B1 *309:A0 3.12916e-05
65 *384:C1 *309:A0 8.25945e-06
66 *384:C1 *383:A 4.77807e-05
67 *392:D *309:A0 0.000148849
68 *393:A *329:B1 2.0794e-05
69 *36:21 *305:A 2.11702e-05
70 *36:21 *122:81 0.00013363
71 *36:96 *305:A 8.74345e-06
72 *43:8 *122:81 1.96308e-05
73 *43:12 *122:81 2.71142e-05
74 *43:14 *343:C1 7.53948e-05
75 *43:14 *122:47 3.33651e-05
76 *43:14 *122:81 3.11595e-05
77 *54:10 *329:B1 6.90254e-05
78 *63:12 *343:C1 0.000133453
79 *82:14 *122:16 0
80 *95:12 *352:C1 0.000540613
81 *100:10 *383:A 7.03276e-05
82 *111:16 *343:C1 0.000191343
83 *115:16 *329:B1 8.33066e-06
84 *116:12 *352:C1 4.4796e-05
85 *116:72 *343:C1 3.4222e-05
86 *119:23 *122:16 0
87 *121:12 *352:C1 2.85135e-05
88 *121:81 *312:A 2.93447e-05
89 *121:91 *305:A 0.000134379
*RES
1 *405:X *122:6 4.81 
2 *122:6 *122:8 2 
3 *122:8 *122:10 3.42 
4 *122:10 *122:16 7.725 
5 *122:16 *122:22 1.17837 
6 *122:22 *352:C1 20.5875 
7 *122:22 *122:45 2.05293 
8 *122:45 *122:47 1.2525 
9 *122:47 *343:C1 12.42 
10 *122:47 *329:B1 16.78 
11 *122:45 *122:81 9.6725 
12 *122:81 *312:A 2.395 
13 *122:81 *305:A 8.255 
14 *122:16 *362:C1 3.6 
15 *122:10 *374:C1 3.6 
16 *122:8 *383:A 9.9 
17 *122:6 *122:136 12.25 
18 *122:136 *384:B2 1.6 
19 *122:136 *309:A0 12.565 
*END

*D_NET *123 0.00115312
*CONN
*I *414:A I *D sky130_fd_sc_hd__clkbuf_4
*I *385:Q O *D sky130_fd_sc_hd__dfxtp_1
*CAP
1 *414:A 0.000532806
2 *385:Q 0.000532806
3 result[0] *414:A 1.33205e-05
4 *385:D *414:A 7.41855e-05
*RES
1 *385:Q *414:A 13.95 
*END

*D_NET *124 0.00293691
*CONN
*I *321:B1 I *D sky130_fd_sc_hd__a211o_1
*I *316:B1 I *D sky130_fd_sc_hd__o21a_1
*I *317:A I *D sky130_fd_sc_hd__or3_1
*I *406:X O *D sky130_fd_sc_hd__buf_1
*CAP
1 *321:B1 0.00030399
2 *316:B1 1.55345e-05
3 *317:A 0
4 *406:X 0.0005873
5 *124:23 0.00041833
6 *124:14 0.000686106
7 *321:B1 *315:A1 4.89295e-05
8 *315:B1 *321:B1 4.77719e-05
9 *317:B *124:14 4.77807e-05
10 *317:B *124:23 9.47267e-06
11 *317:C *316:B1 5.0134e-06
12 *317:C *321:B1 2.51225e-05
13 *317:C *124:23 0.000114098
14 *318:A_N *124:14 0.000105518
15 *319:A *124:14 0.000233594
16 *323:A1 *124:14 7.1624e-05
17 *323:A2 *321:B1 0
18 *323:A2 *124:14 4.89395e-05
19 *323:A2 *124:23 1.22325e-05
20 *395:A *321:B1 0.000110486
21 *41:10 *124:14 9.12494e-06
22 *45:6 *321:B1 6.07575e-06
23 *46:16 *124:14 2.98644e-05
*RES
1 *406:X *124:14 14.345 
2 *124:14 *317:A 1.6 
3 *124:14 *124:23 2.1 
4 *124:23 *316:B1 1.96 
5 *124:23 *321:B1 9.86 
*END

*D_NET *125 0.000408096
*CONN
*I *415:A I *D sky130_fd_sc_hd__buf_2
*I *386:Q O *D sky130_fd_sc_hd__dfxtp_1
*CAP
1 *415:A 0.000204048
2 *386:Q 0.000204048
*RES
1 *386:Q *415:A 9.825 
*END

*D_NET *126 0.000901391
*CONN
*I *416:A I *D sky130_fd_sc_hd__buf_2
*I *387:Q O *D sky130_fd_sc_hd__dfxtp_1
*CAP
1 *416:A 0.000392269
2 *387:Q 0.000392269
3 result[2] *416:A 0
4 *398:A *416:A 0.000116853
*RES
1 *387:Q *416:A 13.155 
*END

*D_NET *127 0.000268646
*CONN
*I *417:A I *D sky130_fd_sc_hd__buf_2
*I *388:Q O *D sky130_fd_sc_hd__dfxtp_1
*CAP
1 *417:A 0.000134323
2 *388:Q 0.000134323
*RES
1 *388:Q *417:A 5.3 
*END

*D_NET *128 0.000425463
*CONN
*I *418:A I *D sky130_fd_sc_hd__buf_2
*I *389:Q O *D sky130_fd_sc_hd__dfxtp_1
*CAP
1 *418:A 0.000186665
2 *389:Q 0.000186665
3 *418:A *133:10 2.52812e-05
4 result[4] *418:A 2.68526e-05
*RES
1 *389:Q *418:A 10.32 
*END

*D_NET *129 0.0028309
*CONN
*I *419:A I *D sky130_fd_sc_hd__buf_2
*I *390:Q O *D sky130_fd_sc_hd__dfxtp_1
*CAP
1 *419:A 0.000593187
2 *390:Q 0.000593187
3 *325:A *419:A 7.12746e-05
4 *329:A1 *419:A 0.000342575
5 *329:A2 *419:A 0.000121659
6 *329:B1 *419:A 8.41384e-05
7 *330:A1 *419:A 4.89295e-05
8 *330:C1 *419:A 0.000272465
9 *331:B1 *419:A 7.18107e-06
10 *43:44 *419:A 4.33561e-05
11 *54:10 *419:A 0.000528984
12 *115:16 *419:A 0.000123969
*RES
1 *390:Q *419:A 17.135 
*END

*D_NET *130 0.0011995
*CONN
*I *420:A I *D sky130_fd_sc_hd__clkbuf_4
*I *391:Q O *D sky130_fd_sc_hd__dfxtp_1
*CAP
1 *420:A 0.000439383
2 *391:Q 0.000439383
3 *420:A *421:A 5.01076e-05
4 result[6] *420:A 8.63685e-05
5 result[7] *420:A 3.64998e-06
6 *309:S *420:A 0.000132827
7 *112:8 *420:A 4.77769e-05
*RES
1 *391:Q *420:A 14.625 
*END

*D_NET *131 0.000275856
*CONN
*I *421:A I *D sky130_fd_sc_hd__clkbuf_4
*I *392:Q O *D sky130_fd_sc_hd__dfxtp_1
*CAP
1 *421:A 8.84061e-05
2 *392:Q 8.84061e-05
3 *309:A0 *421:A 4.89362e-05
4 *420:A *421:A 5.01076e-05
*RES
1 *392:Q *421:A 8.775 
*END

*D_NET *132 0.00236927
*CONN
*I *339:A I *D sky130_fd_sc_hd__and2_1
*I *330:B1 I *D sky130_fd_sc_hd__a211o_1
*I *326:A I *D sky130_fd_sc_hd__xor2_1
*I *407:X O *D sky130_fd_sc_hd__buf_1
*CAP
1 *339:A 6.15115e-05
2 *330:B1 0.000269126
3 *326:A 0
4 *407:X 0.000286023
5 *132:10 0.00061666
6 *326:B *330:B1 4.66108e-05
7 *327:A *132:10 2.58336e-05
8 *328:B *132:10 0.000140394
9 *329:B1 *330:B1 0.000159144
10 *330:A1 *330:B1 9.12494e-06
11 *387:CLK *339:A 0.000113333
12 *393:A *339:A 0.000201364
13 *52:42 *132:10 4.77757e-05
14 *55:8 *132:10 0.000239195
15 *60:12 *330:B1 0.000153177
*RES
1 *407:X *132:10 7.6 
2 *132:10 *326:A 1.6 
3 *132:10 *330:B1 11.045 
4 *132:10 *339:A 8 
*END

*D_NET *133 0.00271869
*CONN
*I *335:B1 I *D sky130_fd_sc_hd__a21o_1
*I *342:A2 I *D sky130_fd_sc_hd__a21o_1
*I *337:A I *D sky130_fd_sc_hd__and3_1
*I *343:A2 I *D sky130_fd_sc_hd__o211a_1
*I *408:X O *D sky130_fd_sc_hd__buf_1
*CAP
1 *335:B1 2.10131e-05
2 *342:A2 0.000113639
3 *337:A 9.46129e-05
4 *343:A2 2.09808e-05
5 *408:X 0.000188784
6 *133:36 0.000240043
7 *133:14 0.000218222
8 *133:10 0.000396803
9 *343:A1 *133:36 0.000136963
10 *343:B1 *335:B1 1.9509e-05
11 *343:B1 *342:A2 8.46818e-05
12 *343:B1 *133:14 4.89295e-05
13 *343:C1 *133:14 0.000121036
14 *343:C1 *133:36 2.97608e-05
15 *344:A1 *133:10 0.000156911
16 *353:A1 *133:14 4.66108e-05
17 *408:A *133:10 4.9253e-06
18 *418:A *133:10 2.52812e-05
19 *36:44 *133:10 2.02316e-05
20 *36:44 *133:36 3.96961e-05
21 *63:12 *133:10 0.000134756
22 *63:12 *133:36 0.000145857
23 *75:18 *335:B1 7.62106e-05
24 *75:18 *342:A2 0.000179006
25 *111:16 *337:A 0.00011688
26 *111:16 *133:14 3.73456e-05
*RES
1 *408:X *133:10 7.56 
2 *133:10 *133:14 4.175 
3 *133:14 *343:A2 1.96 
4 *133:14 *337:A 3.43 
5 *133:10 *133:36 4.955 
6 *133:36 *342:A2 4.48 
7 *133:36 *335:B1 2.56 
*END

*D_NET *134 0.00294197
*CONN
*I *359:B2 I *D sky130_fd_sc_hd__a32o_1
*I *369:A1 I *D sky130_fd_sc_hd__a21bo_1
*I *351:A2 I *D sky130_fd_sc_hd__a21o_1
*I *352:A2 I *D sky130_fd_sc_hd__o211a_1
*I *347:A I *D sky130_fd_sc_hd__xor2_1
*I *409:X O *D sky130_fd_sc_hd__dlymetal6s2s_1
*CAP
1 *359:B2 4.26116e-05
2 *369:A1 0
3 *351:A2 0.000203682
4 *352:A2 0
5 *347:A 8.02182e-06
6 *409:X 0.000174389
7 *134:45 0.000159101
8 *134:32 0.000330981
9 *134:25 0.000146397
10 *134:12 0.000317997
11 *342:B1 *347:A 4.77769e-05
12 *342:B1 *134:12 0.000196669
13 *352:A1 *351:A2 6.53875e-05
14 *352:A1 *134:32 9.12671e-06
15 *352:A1 *134:45 2.68526e-05
16 *352:B1 *351:A2 0.000122191
17 *352:B1 *134:32 3.12916e-05
18 *352:C1 *351:A2 0.000122815
19 *352:C1 *134:25 3.60024e-06
20 *352:C1 *134:45 8.13484e-05
21 *353:B1 *359:B2 0.00019608
22 *353:B1 *134:45 0.00019723
23 *359:B1 *359:B2 0.000157394
24 *369:B1_N *134:45 4.77719e-05
25 *73:21 *347:A 4.89395e-05
26 *73:21 *134:12 0.00018641
27 *117:25 *351:A2 1.79098e-05
*RES
1 *409:X *134:12 9.575 
2 *134:12 *347:A 2.05 
3 *134:12 *134:25 5.89 
4 *134:25 *352:A2 1.6 
5 *134:25 *134:32 0.36 
6 *134:32 *351:A2 5.785 
7 *134:32 *134:45 3.21 
8 *134:45 *369:A1 1.6 
9 *134:45 *359:B2 3.43 
*END

*D_NET *135 0.00338536
*CONN
*I *356:A I *D sky130_fd_sc_hd__nor3_1
*I *357:B1 I *D sky130_fd_sc_hd__o21ai_1
*I *362:A2 I *D sky130_fd_sc_hd__o211a_1
*I *361:A2 I *D sky130_fd_sc_hd__a21o_1
*I *410:X O *D sky130_fd_sc_hd__buf_1
*CAP
1 *356:A 0.000164097
2 *357:B1 0.000173764
3 *362:A2 1.72243e-05
4 *361:A2 1.7917e-05
5 *410:X 0.000127992
6 *135:28 0.000369901
7 *135:17 0.000124187
8 *135:8 0.000220833
9 *352:C1 *357:B1 0.000107499
10 *356:B *356:A 2.49909e-05
11 *356:C *356:A 0.000289598
12 *356:C *357:B1 0.000131365
13 *357:A2 *357:B1 5.95126e-05
14 *358:A_N *356:A 0.00023698
15 *358:A_N *357:B1 0.000156923
16 *361:B1 *361:A2 3.50152e-06
17 *361:B1 *135:8 4.8854e-05
18 *361:B1 *135:17 6.32423e-05
19 *362:A1 *362:A2 9.03508e-06
20 *362:A1 *135:17 3.93587e-05
21 *362:A1 *135:28 1.28131e-05
22 *362:B1 *362:A2 9.03508e-06
23 *362:B1 *135:17 7.08554e-05
24 *369:B1_N *357:B1 0.000113771
25 *380:A2 *135:8 0.000122189
26 *380:A2 *135:17 8.52845e-05
27 *43:44 *135:17 0.000258443
28 *43:44 *135:28 8.35068e-05
29 *60:20 *357:B1 7.05395e-05
30 *82:6 *356:A 0.000123955
31 *118:37 *135:8 1.19928e-05
32 *121:74 *356:A 3.61981e-05
*RES
1 *410:X *135:8 4.135 
2 *135:8 *361:A2 1.96 
3 *135:8 *135:17 3.21 
4 *135:17 *362:A2 1.96 
5 *135:17 *135:28 2.795 
6 *135:28 *357:B1 8.925 
7 *135:28 *356:A 8.52 
*END

*D_NET *136 0.00249319
*CONN
*I *367:A I *D sky130_fd_sc_hd__or2_1
*I *374:A2 I *D sky130_fd_sc_hd__o211a_1
*I *366:A I *D sky130_fd_sc_hd__nand2_1
*I *373:A2 I *D sky130_fd_sc_hd__a21o_1
*I *411:X O *D sky130_fd_sc_hd__buf_1
*CAP
1 *367:A 0.000167328
2 *374:A2 1.8855e-05
3 *366:A 0.000116366
4 *373:A2 9.75856e-05
5 *411:X 0.000385099
6 *136:36 0.000239037
7 *136:14 0.000283675
8 *136:10 0.000507677
9 *366:B *136:14 2.4002e-05
10 *367:B *367:A 5.2809e-05
11 *373:A1 *373:A2 2.86975e-05
12 *373:B1 *366:A 0
13 *373:B1 *373:A2 3.18594e-05
14 *374:A1 *367:A 1.52352e-05
15 *374:A1 *374:A2 9.13949e-06
16 *374:A1 *136:36 2.97593e-05
17 *374:B1 *136:14 0.000134248
18 *380:A2 *373:A2 3.13354e-05
19 *91:6 *366:A 2.86975e-05
20 *122:10 *136:10 8.33575e-05
21 *122:10 *136:14 3.12855e-05
22 *122:16 *136:14 0.000177148
*RES
1 *411:X *136:10 8.28 
2 *136:10 *136:14 4.4 
3 *136:14 *373:A2 3.445 
4 *136:14 *366:A 3.445 
5 *136:10 *136:36 2.795 
6 *136:36 *374:A2 1.96 
7 *136:36 *367:A 4.12 
*END

*D_NET *137 0.00135474
*CONN
*I *378:B I *D sky130_fd_sc_hd__nor2_1
*I *376:B I *D sky130_fd_sc_hd__and2_1
*I *412:X O *D sky130_fd_sc_hd__clkbuf_1
*CAP
1 *378:B 0.000273388
2 *376:B 0
3 *412:X 0.000212161
4 *137:8 0.000485549
5 *376:A *137:8 4.77757e-05
6 *379:B *378:B 5.288e-05
7 *383:A *378:B 0.000191136
8 *383:B *378:B 8.40315e-05
9 *30:10 *378:B 4.1652e-06
10 *100:10 *378:B 3.64998e-06
*RES
1 *412:X *137:8 4.735 
2 *137:8 *376:B 1.6 
3 *137:8 *378:B 11.135 
*END

*D_NET *138 0.00548118
*CONN
*I *311:B_N I *D sky130_fd_sc_hd__or2b_1
*I *307:A2 I *D sky130_fd_sc_hd__o21a_1
*I *315:A1 I *D sky130_fd_sc_hd__a21oi_1
*I *314:A I *D sky130_fd_sc_hd__and3_1
*I *332:A I *D sky130_fd_sc_hd__or3_2
*I *324:A1 I *D sky130_fd_sc_hd__o21a_1
*I *308:B I *D sky130_fd_sc_hd__nand2_1
*I *413:X O *D sky130_fd_sc_hd__dlymetal6s2s_1
*CAP
1 *311:B_N 2.45313e-05
2 *307:A2 2.59862e-05
3 *315:A1 5.78012e-05
4 *314:A 0.000148876
5 *332:A 9.42083e-05
6 *324:A1 9.51376e-05
7 *308:B 7.4719e-05
8 *413:X 0.000339052
9 *138:77 7.13276e-05
10 *138:39 0.000241247
11 *138:35 0.000278376
12 *138:33 0.000290074
13 *138:20 0.000435104
14 *138:10 0.000565573
15 *308:A *307:A2 4.66108e-05
16 *308:A *308:B 2.94433e-05
17 *308:A *138:20 0.000232403
18 *308:A *138:77 0
19 *309:A1 *308:B 3.09088e-05
20 *310:A *138:10 0.000383649
21 *314:B *314:A 1.1392e-05
22 *314:C *314:A 0.000110556
23 *315:A2 *315:A1 8.35106e-05
24 *315:A2 *138:35 4.22058e-05
25 *321:B1 *315:A1 4.89295e-05
26 *332:C *324:A1 0
27 *385:D *138:10 4.89395e-05
28 *394:A *138:39 0.000118527
29 *395:A *138:33 0.000282502
30 *395:A *138:35 0.000243532
31 *395:A *138:39 2.14129e-05
32 *36:38 *324:A1 5.58206e-05
33 *36:38 *138:39 5.39961e-05
34 *37:40 *138:33 0
35 *43:8 *138:35 8.26415e-05
36 *43:8 *138:39 1.52184e-05
37 *43:10 *138:39 3.23391e-05
38 *44:10 *314:A 3.64622e-05
39 *60:12 *332:A 5.06989e-05
40 *112:8 *138:10 4.60123e-05
41 *112:34 *138:10 0.000147671
42 *113:12 *138:10 0.000160503
43 *113:12 *138:20 6.75449e-05
44 *113:16 *307:A2 1.08758e-05
45 *113:16 *311:B_N 3.57349e-05
46 *114:39 *138:20 0
47 *114:45 *324:A1 0.000158965
48 *114:45 *332:A 5.01565e-05
*RES
1 *413:X *138:10 11.805 
2 *138:10 *138:20 5.6 
3 *138:20 *308:B 3.01 
4 *138:20 *138:33 5.42 
5 *138:33 *138:35 2.91 
6 *138:35 *138:39 3.635 
7 *138:39 *324:A1 3.79 
8 *138:39 *332:A 3.43 
9 *138:35 *314:A 6.12 
10 *138:33 *315:A1 4.74 
11 *138:10 *138:77 2.36 
12 *138:77 *307:A2 2.05 
13 *138:77 *311:B_N 2.05 
*END
