*SPEF "ieee 1481-1999"
*DESIGN "alu"
*DATE "11:51:54 Wednesday June 18, 2025"
*VENDOR "The OpenROAD Project"
*PROGRAM "OpenROAD"
*VERSION "b16bda7e82721d10566ff7e2b68f1ff0be9f9e38"
*DESIGN_FLOW "NAME_SCOPE LOCAL" "PIN_CAP NONE"
*DIVIDER /
*DELIMITER :
*BUS_DELIMITER []
*T_UNIT 1 NS
*C_UNIT 1 PF
*R_UNIT 1 OHM
*L_UNIT 1 HENRY

*NAME_MAP
*3 a[0]
*4 a[1]
*5 a[2]
*6 a[3]
*7 a[4]
*8 a[5]
*9 a[6]
*10 a[7]
*11 b[0]
*12 b[1]
*13 b[2]
*14 b[3]
*15 b[4]
*16 b[5]
*17 b[6]
*18 b[7]
*19 clk
*20 result[0]
*21 result[1]
*22 result[2]
*23 result[3]
*24 result[4]
*25 result[5]
*26 result[6]
*27 result[7]
*28 sel[0]
*29 sel[1]
*30 _000_
*31 _001_
*32 _002_
*33 _003_
*34 _004_
*35 _005_
*36 _006_
*37 _007_
*38 _008_
*39 _009_
*40 _010_
*41 _011_
*42 _012_
*43 _013_
*44 _014_
*45 _015_
*46 _016_
*47 _017_
*48 _018_
*49 _019_
*50 _020_
*51 _021_
*52 _022_
*53 _023_
*54 _024_
*55 _025_
*56 _026_
*57 _027_
*58 _028_
*59 _029_
*60 _030_
*61 _031_
*62 _032_
*63 _033_
*64 _034_
*65 _035_
*66 _036_
*67 _037_
*68 _038_
*69 _039_
*70 _040_
*71 _041_
*72 _042_
*73 _043_
*74 _044_
*75 _045_
*76 _046_
*77 _047_
*78 _048_
*79 _049_
*80 _050_
*81 _051_
*82 _052_
*83 _053_
*84 _054_
*85 _055_
*86 _056_
*87 _057_
*88 _058_
*89 _059_
*90 _060_
*91 _061_
*92 _062_
*93 _063_
*94 _064_
*95 _065_
*96 _066_
*97 _067_
*98 _068_
*99 _069_
*100 _070_
*101 _071_
*102 _072_
*103 _073_
*104 _074_
*105 _075_
*106 _076_
*107 _077_
*108 _078_
*109 _079_
*110 clknet_0_clk
*111 clknet_1_0__leaf_clk
*112 clknet_1_1__leaf_clk
*113 net1
*114 net10
*115 net11
*116 net12
*117 net13
*118 net14
*119 net15
*120 net16
*121 net17
*122 net18
*123 net19
*124 net2
*125 net20
*126 net21
*127 net22
*128 net23
*129 net24
*130 net25
*131 net26
*132 net3
*133 net4
*134 net5
*135 net6
*136 net7
*137 net8
*138 net9
*139 FILLER_0_0_15
*140 FILLER_0_0_27
*141 FILLER_0_0_3
*142 FILLER_0_0_39
*143 FILLER_0_0_51
*144 FILLER_0_0_55
*145 FILLER_0_0_57
*146 FILLER_0_0_63
*147 FILLER_0_0_75
*148 FILLER_0_0_83
*149 FILLER_0_0_85
*150 FILLER_0_10_18
*151 FILLER_0_10_25
*152 FILLER_0_10_29
*153 FILLER_0_10_38
*154 FILLER_0_10_42
*155 FILLER_0_10_46
*156 FILLER_0_10_54
*157 FILLER_0_10_6
*158 FILLER_0_10_71
*159 FILLER_0_10_83
*160 FILLER_0_10_85
*161 FILLER_0_11_19
*162 FILLER_0_11_31
*163 FILLER_0_11_43
*164 FILLER_0_11_51
*165 FILLER_0_11_69
*166 FILLER_0_11_7
*167 FILLER_0_12_15
*168 FILLER_0_12_27
*169 FILLER_0_12_29
*170 FILLER_0_12_48
*171 FILLER_0_12_6
*172 FILLER_0_12_73
*173 FILLER_0_12_85
*174 FILLER_0_13_3
*175 FILLER_0_13_46
*176 FILLER_0_13_89
*177 FILLER_0_14_16
*178 FILLER_0_14_29
*179 FILLER_0_14_41
*180 FILLER_0_14_51
*181 FILLER_0_14_55
*182 FILLER_0_14_6
*183 FILLER_0_14_72
*184 FILLER_0_14_85
*185 FILLER_0_1_11
*186 FILLER_0_1_19
*187 FILLER_0_1_27
*188 FILLER_0_1_3
*189 FILLER_0_1_37
*190 FILLER_0_1_57
*191 FILLER_0_1_63
*192 FILLER_0_1_80
*193 FILLER_0_1_88
*194 FILLER_0_2_3
*195 FILLER_0_2_43
*196 FILLER_0_2_85
*197 FILLER_0_3_16
*198 FILLER_0_3_24
*199 FILLER_0_3_3
*200 FILLER_0_3_32
*201 FILLER_0_3_36
*202 FILLER_0_3_88
*203 FILLER_0_3_9
*204 FILLER_0_4_13
*205 FILLER_0_4_20
*206 FILLER_0_4_29
*207 FILLER_0_4_41
*208 FILLER_0_4_49
*209 FILLER_0_4_66
*210 FILLER_0_4_72
*211 FILLER_0_4_78
*212 FILLER_0_4_85
*213 FILLER_0_5_20
*214 FILLER_0_5_3
*215 FILLER_0_5_36
*216 FILLER_0_5_48
*217 FILLER_0_5_57
*218 FILLER_0_5_69
*219 FILLER_0_5_86
*220 FILLER_0_6_25
*221 FILLER_0_6_29
*222 FILLER_0_6_33
*223 FILLER_0_6_50
*224 FILLER_0_6_58
*225 FILLER_0_6_69
*226 FILLER_0_6_76
*227 FILLER_0_6_85
*228 FILLER_0_6_9
*229 FILLER_0_7_19
*230 FILLER_0_7_31
*231 FILLER_0_7_39
*232 FILLER_0_7_47
*233 FILLER_0_7_63
*234 FILLER_0_7_7
*235 FILLER_0_7_73
*236 FILLER_0_8_20
*237 FILLER_0_8_29
*238 FILLER_0_8_3
*239 FILLER_0_8_41
*240 FILLER_0_8_47
*241 FILLER_0_8_73
*242 FILLER_0_8_81
*243 FILLER_0_8_85
*244 FILLER_0_9_13
*245 FILLER_0_9_27
*246 FILLER_0_9_38
*247 FILLER_0_9_55
*248 FILLER_0_9_78
*249 FILLER_0_9_86
*250 PHY_EDGE_ROW_0_Left_15
*251 PHY_EDGE_ROW_0_Right_0
*252 PHY_EDGE_ROW_10_Left_25
*253 PHY_EDGE_ROW_10_Right_10
*254 PHY_EDGE_ROW_11_Left_26
*255 PHY_EDGE_ROW_11_Right_11
*256 PHY_EDGE_ROW_12_Left_27
*257 PHY_EDGE_ROW_12_Right_12
*258 PHY_EDGE_ROW_13_Left_28
*259 PHY_EDGE_ROW_13_Right_13
*260 PHY_EDGE_ROW_14_Left_29
*261 PHY_EDGE_ROW_14_Right_14
*262 PHY_EDGE_ROW_1_Left_16
*263 PHY_EDGE_ROW_1_Right_1
*264 PHY_EDGE_ROW_2_Left_17
*265 PHY_EDGE_ROW_2_Right_2
*266 PHY_EDGE_ROW_3_Left_18
*267 PHY_EDGE_ROW_3_Right_3
*268 PHY_EDGE_ROW_4_Left_19
*269 PHY_EDGE_ROW_4_Right_4
*270 PHY_EDGE_ROW_5_Left_20
*271 PHY_EDGE_ROW_5_Right_5
*272 PHY_EDGE_ROW_6_Left_21
*273 PHY_EDGE_ROW_6_Right_6
*274 PHY_EDGE_ROW_7_Left_22
*275 PHY_EDGE_ROW_7_Right_7
*276 PHY_EDGE_ROW_8_Left_23
*277 PHY_EDGE_ROW_8_Right_8
*278 PHY_EDGE_ROW_9_Left_24
*279 PHY_EDGE_ROW_9_Right_9
*280 TAP_TAPCELL_ROW_0_30
*281 TAP_TAPCELL_ROW_0_31
*282 TAP_TAPCELL_ROW_0_32
*283 TAP_TAPCELL_ROW_10_46
*284 TAP_TAPCELL_ROW_10_47
*285 TAP_TAPCELL_ROW_11_48
*286 TAP_TAPCELL_ROW_12_49
*287 TAP_TAPCELL_ROW_12_50
*288 TAP_TAPCELL_ROW_13_51
*289 TAP_TAPCELL_ROW_14_52
*290 TAP_TAPCELL_ROW_14_53
*291 TAP_TAPCELL_ROW_14_54
*292 TAP_TAPCELL_ROW_1_33
*293 TAP_TAPCELL_ROW_2_34
*294 TAP_TAPCELL_ROW_2_35
*295 TAP_TAPCELL_ROW_3_36
*296 TAP_TAPCELL_ROW_4_37
*297 TAP_TAPCELL_ROW_4_38
*298 TAP_TAPCELL_ROW_5_39
*299 TAP_TAPCELL_ROW_6_40
*300 TAP_TAPCELL_ROW_6_41
*301 TAP_TAPCELL_ROW_7_42
*302 TAP_TAPCELL_ROW_8_43
*303 TAP_TAPCELL_ROW_8_44
*304 TAP_TAPCELL_ROW_9_45
*305 _080_
*306 _081_
*307 _082_
*308 _083_
*309 _084_
*310 _085_
*311 _086_
*312 _087_
*313 _088_
*314 _089_
*315 _090_
*316 _091_
*317 _092_
*318 _093_
*319 _094_
*320 _095_
*321 _096_
*322 _097_
*323 _098_
*324 _099_
*325 _100_
*326 _101_
*327 _102_
*328 _103_
*329 _104_
*330 _105_
*331 _106_
*332 _107_
*333 _108_
*334 _109_
*335 _110_
*336 _111_
*337 _112_
*338 _113_
*339 _114_
*340 _115_
*341 _116_
*342 _117_
*343 _118_
*344 _119_
*345 _120_
*346 _121_
*347 _122_
*348 _123_
*349 _124_
*350 _125_
*351 _126_
*352 _127_
*353 _128_
*354 _129_
*355 _130_
*356 _131_
*357 _132_
*358 _133_
*359 _134_
*360 _135_
*361 _136_
*362 _137_
*363 _138_
*364 _139_
*365 _140_
*366 _141_
*367 _142_
*368 _143_
*369 _144_
*370 _145_
*371 _146_
*372 _147_
*373 _148_
*374 _149_
*375 _150_
*376 _151_
*377 _152_
*378 _153_
*379 _154_
*380 _155_
*381 _156_
*382 _157_
*383 _158_
*384 _159_
*385 _160_
*386 _161_
*387 _162_
*388 _163_
*389 _164_
*390 _165_
*391 _166_
*392 _167_
*393 clkbuf_0_clk
*394 clkbuf_1_0__f_clk
*395 clkbuf_1_1__f_clk
*396 input1
*397 input10
*398 input11
*399 input12
*400 input13
*401 input14
*402 input15
*403 input16
*404 input17
*405 input18
*406 input2
*407 input3
*408 input4
*409 input5
*410 input6
*411 input7
*412 input8
*413 input9
*414 output19
*415 output20
*416 output21
*417 output22
*418 output23
*419 output24
*420 output25
*421 output26

*PORTS
a[0] I
a[1] I
a[2] I
a[3] I
a[4] I
a[5] I
a[6] I
a[7] I
b[0] I
b[1] I
b[2] I
b[3] I
b[4] I
b[5] I
b[6] I
b[7] I
clk I
result[0] O
result[1] O
result[2] O
result[3] O
result[4] O
result[5] O
result[6] O
result[7] O
sel[0] I
sel[1] I

*D_NET *3 0.0013309
*CONN
*P a[0] I
*I *396:A I *D sky130_fd_sc_hd__buf_1
*CAP
1 a[0] 0.000662426
2 *396:A 0.000662426
3 *396:A result[0] 0
4 *396:A result[6] 0
5 *396:A *113:12 6.05161e-06
*RES
1 a[0] *396:A 26.4607 
*END

*D_NET *4 0.000655604
*CONN
*P a[1] I
*I *406:A I *D sky130_fd_sc_hd__buf_1
*CAP
1 a[1] 0.000272929
2 *406:A 0.000272929
3 *406:A result[2] 5.37209e-05
4 *406:A *397:A 5.60255e-05
*RES
1 a[1] *406:A 20.1394 
*END

*D_NET *5 0.000693629
*CONN
*P a[2] I
*I *407:A I *D sky130_fd_sc_hd__buf_1
*CAP
1 a[2] 0.000282203
2 *407:A 0.000282203
3 *407:A result[5] 5.60255e-05
4 *407:A *393:A 7.31978e-05
*RES
1 a[2] *407:A 19.6407 
*END

*D_NET *6 0.000844193
*CONN
*P a[3] I
*I *408:A I *D sky130_fd_sc_hd__buf_1
*CAP
1 a[3] 0.000419443
2 *408:A 0.000419443
3 *408:A result[4] 0
4 *408:A *133:10 5.30637e-06
*RES
1 a[3] *408:A 21.8357 
*END

*D_NET *7 0.000852442
*CONN
*P a[4] I
*I *409:A I *D sky130_fd_sc_hd__dlymetal6s2s_1
*CAP
1 a[4] 0.000426221
2 *409:A 0.000426221
3 *409:A *399:A 0
*RES
1 a[4] *409:A 21.8357 
*END

*D_NET *8 0.000520514
*CONN
*P a[5] I
*I *410:A I *D sky130_fd_sc_hd__buf_1
*CAP
1 a[5] 0.000202166
2 *410:A 0.000202166
3 *410:A *401:A 9.35869e-05
4 *410:A *402:A 0
5 *410:A *404:A 2.25951e-05
*RES
1 a[5] *410:A 18.73 
*END

*D_NET *9 0.000631115
*CONN
*P a[6] I
*I *411:A I *D sky130_fd_sc_hd__buf_1
*CAP
1 a[6] 0.000289876
2 *411:A 0.000289876
3 *411:A *381:B 0
4 *411:A *402:A 2.25951e-05
5 *411:A *405:A 2.87684e-05
*RES
1 a[6] *411:A 21.0874 
*END

*D_NET *10 0.000608705
*CONN
*P a[7] I
*I *412:A I *D sky130_fd_sc_hd__clkbuf_1
*CAP
1 a[7] 0.000278671
2 *412:A 0.000278671
3 *412:A *403:A 2.87684e-05
4 *412:A *405:A 2.25951e-05
*RES
1 a[7] *412:A 20.7838 
*END

*D_NET *11 0.00100465
*CONN
*P b[0] I
*I *413:A I *D sky130_fd_sc_hd__dlymetal6s2s_1
*CAP
1 b[0] 0.000440877
2 *413:A 0.000440877
3 *413:A result[1] 5.60255e-05
4 *413:A *397:A 6.68656e-05
*RES
1 b[0] *413:A 18.6273 
*END

*D_NET *12 0.000565609
*CONN
*P b[1] I
*I *397:A I *D sky130_fd_sc_hd__dlymetal6s2s_1
*CAP
1 b[1] 0.000221359
2 *397:A 0.000221359
3 *397:A result[2] 0
4 *406:A *397:A 5.60255e-05
5 *413:A *397:A 6.68656e-05
*RES
1 b[1] *397:A 18.73 
*END

*D_NET *13 0.00083863
*CONN
*P b[2] I
*I *398:A I *D sky130_fd_sc_hd__buf_1
*CAP
1 b[2] 0.000296582
2 *398:A 0.000296582
3 *398:A result[2] 6.63071e-05
4 *398:A result[5] 5.27213e-05
5 *398:A *416:A 0.000126439
*RES
1 b[2] *398:A 21.3537 
*END

*D_NET *14 0.00117449
*CONN
*P b[3] I
*I *399:A I *D sky130_fd_sc_hd__dlymetal6s2s_1
*CAP
1 b[3] 0.000514857
2 *399:A 0.000514857
3 *399:A *116:12 0.000144773
4 *409:A *399:A 0
*RES
1 b[3] *399:A 23.8893 
*END

*D_NET *15 0.000728261
*CONN
*P b[4] I
*I *400:A I *D sky130_fd_sc_hd__clkbuf_2
*CAP
1 b[4] 0.000348161
2 *400:A 0.000348161
3 *400:A *401:A 3.19385e-05
4 *400:A *117:8 0
5 *400:A *117:10 0
*RES
1 b[4] *400:A 21.8017 
*END

*D_NET *16 0.00130609
*CONN
*P b[5] I
*I *401:A I *D sky130_fd_sc_hd__buf_1
*CAP
1 b[5] 0.000397166
2 *401:A 0.000397166
3 *401:A *354:C1 2.69483e-05
4 *401:A *364:A3 6.51302e-05
5 *401:A *89:10 0.000126416
6 *401:A *117:54 0.000136967
7 *401:A *118:8 3.07737e-05
8 *400:A *401:A 3.19385e-05
9 *410:A *401:A 9.35869e-05
*RES
1 b[5] *401:A 21.9819 
*END

*D_NET *17 0.00138693
*CONN
*P b[6] I
*I *402:A I *D sky130_fd_sc_hd__buf_1
*CAP
1 b[6] 0.000452394
2 *402:A 0.000452394
3 *402:A *365:A 2.83425e-05
4 *402:A *365:B 0.000144901
5 *402:A *381:B 0.000114109
6 *402:A *404:A 2.87684e-05
7 *402:A *405:A 0
8 *402:A *90:6 9.72675e-05
9 *402:A *119:8 4.61606e-05
10 *410:A *402:A 0
11 *411:A *402:A 2.25951e-05
*RES
1 b[6] *402:A 22.6069 
*END

*D_NET *18 0.000665179
*CONN
*P b[7] I
*I *403:A I *D sky130_fd_sc_hd__clkbuf_1
*CAP
1 b[7] 0.00030032
2 *403:A 0.00030032
3 *403:A *381:A 3.5771e-05
4 *403:A *405:A 0
5 *412:A *403:A 2.87684e-05
*RES
1 b[7] *403:A 19.9443 
*END

*D_NET *19 0.00388823
*CONN
*P clk I
*I *393:A I *D sky130_fd_sc_hd__clkbuf_16
*CAP
1 clk 0.00144554
2 *393:A 0.00144554
3 *393:A result[3] 7.18753e-05
4 *393:A *329:B1 2.07809e-05
5 *393:A *331:A2 0
6 *393:A *339:A 0.000220657
7 *393:A *339:B 0.000174236
8 *393:A *387:CLK 0.000172729
9 *393:A *52:10 0
10 *393:A *54:10 0.000146991
11 *393:A *60:12 0
12 *393:A *62:10 0
13 *393:A *115:10 4.25716e-05
14 *393:A *115:16 7.41092e-05
15 *407:A *393:A 7.31978e-05
*RES
1 clk *393:A 30.6522 
*END

*D_NET *20 0.00120605
*CONN
*P result[0] O
*I *414:X O *D sky130_fd_sc_hd__clkbuf_4
*CAP
1 result[0] 0.000596037
2 *414:X 0.000596037
3 result[0] *414:A 1.28171e-05
4 result[0] *113:12 1.15615e-06
5 *396:A result[0] 0
*RES
1 *414:X result[0] 24.4786 
*END

*D_NET *21 0.00076869
*CONN
*P result[1] O
*I *415:X O *D sky130_fd_sc_hd__buf_2
*CAP
1 result[1] 0.000356332
2 *415:X 0.000356332
3 *413:A result[1] 5.60255e-05
*RES
1 *415:X result[1] 20.5501 
*END

*D_NET *22 0.000831751
*CONN
*P result[2] O
*I *416:X O *D sky130_fd_sc_hd__buf_2
*CAP
1 result[2] 0.000355862
2 *416:X 0.000355862
3 result[2] *416:A 0
4 *397:A result[2] 0
5 *398:A result[2] 6.63071e-05
6 *406:A result[2] 5.37209e-05
*RES
1 *416:X result[2] 19.4813 
*END

*D_NET *23 0.000629854
*CONN
*P result[3] O
*I *417:X O *D sky130_fd_sc_hd__buf_2
*CAP
1 result[3] 0.000278989
2 *417:X 0.000278989
3 *393:A result[3] 7.18753e-05
*RES
1 *417:X result[3] 18.4985 
*END

*D_NET *24 0.000959836
*CONN
*P result[4] O
*I *418:X O *D sky130_fd_sc_hd__buf_2
*CAP
1 result[4] 0.000465712
2 *418:X 0.000465712
3 result[4] *418:A 2.84109e-05
4 *408:A result[4] 0
*RES
1 *418:X result[4] 22.05 
*END

*D_NET *25 0.000619059
*CONN
*P result[5] O
*I *419:X O *D sky130_fd_sc_hd__buf_2
*CAP
1 result[5] 0.000255156
2 *419:X 0.000255156
3 *398:A result[5] 5.27213e-05
4 *407:A result[5] 5.60255e-05
*RES
1 *419:X result[5] 19.3359 
*END

*D_NET *26 0.00154006
*CONN
*P result[6] O
*I *420:X O *D sky130_fd_sc_hd__clkbuf_4
*CAP
1 result[6] 0.000727819
2 *420:X 0.000727819
3 result[6] result[7] 0
4 result[6] *420:A 8.44253e-05
5 *396:A result[6] 0
*RES
1 *420:X result[6] 26.5321 
*END

*D_NET *27 0.00123513
*CONN
*P result[7] O
*I *421:X O *D sky130_fd_sc_hd__clkbuf_4
*CAP
1 result[7] 0.000615718
2 *421:X 0.000615718
3 result[7] *420:A 3.69047e-06
4 result[6] result[7] 0
*RES
1 *421:X result[7] 25.1929 
*END

*D_NET *28 0.000622198
*CONN
*P sel[0] I
*I *404:A I *D sky130_fd_sc_hd__clkbuf_2
*CAP
1 sel[0] 0.000285417
2 *404:A 0.000285417
3 *402:A *404:A 2.87684e-05
4 *410:A *404:A 2.25951e-05
*RES
1 sel[0] *404:A 20.891 
*END

*D_NET *29 0.000569655
*CONN
*P sel[1] I
*I *405:A I *D sky130_fd_sc_hd__buf_2
*CAP
1 sel[1] 0.000233616
2 *405:A 0.000233616
3 *405:A *381:B 5.10602e-05
4 *402:A *405:A 0
5 *403:A *405:A 0
6 *411:A *405:A 2.87684e-05
7 *412:A *405:A 2.25951e-05
*RES
1 sel[1] *405:A 19.0336 
*END

*D_NET *30 0.000801313
*CONN
*I *379:A I *D sky130_fd_sc_hd__nor2_1
*I *383:B I *D sky130_fd_sc_hd__nand2_1
*I *378:Y O *D sky130_fd_sc_hd__nor2_1
*CAP
1 *379:A 1.72843e-05
2 *383:B 7.13794e-05
3 *378:Y 0.000131978
4 *30:10 0.000220642
5 *379:A *378:A 2.84026e-05
6 *379:A *381:A 2.84026e-05
7 *383:B *376:A 9.05458e-05
8 *383:B *378:B 8.54714e-05
9 *30:10 *376:A 2.47319e-05
10 *30:10 *378:A 9.83442e-05
11 *30:10 *378:B 4.13122e-06
*RES
1 *378:Y *30:10 15.7821 
2 *30:10 *383:B 16.05 
3 *30:10 *379:A 14.3357 
*END

*D_NET *31 0.000623402
*CONN
*I *381:A I *D sky130_fd_sc_hd__xnor2_1
*I *379:Y O *D sky130_fd_sc_hd__nor2_1
*CAP
1 *381:A 0.000238773
2 *379:Y 0.000238773
3 *381:A *376:A 4.07423e-05
4 *381:A *378:A 6.8445e-06
5 *381:A *120:6 3.40949e-05
6 *379:A *381:A 2.84026e-05
7 *403:A *381:A 3.5771e-05
*RES
1 *379:Y *381:A 31.4214 
*END

*D_NET *32 0.00147997
*CONN
*I *381:B I *D sky130_fd_sc_hd__xnor2_1
*I *380:X O *D sky130_fd_sc_hd__a21o_1
*CAP
1 *381:B 0.000641131
2 *380:X 0.000641131
3 *381:B *365:B 3.2537e-05
4 *381:B *383:A 0
5 *381:B *122:10 0
6 *402:A *381:B 0.000114109
7 *405:A *381:B 5.10602e-05
8 *411:A *381:B 0
*RES
1 *380:X *381:B 39.5643 
*END

*D_NET *33 0.000411556
*CONN
*I *382:B I *D sky130_fd_sc_hd__xnor2_1
*I *381:Y O *D sky130_fd_sc_hd__xnor2_1
*CAP
1 *382:B 0.00015801
2 *381:Y 0.00015801
3 *382:B *383:A 5.33005e-05
4 *382:B *384:C1 4.22349e-05
*RES
1 *381:Y *382:B 21.2071 
*END

*D_NET *34 0.00031446
*CONN
*I *384:B1 I *D sky130_fd_sc_hd__o221a_1
*I *382:Y O *D sky130_fd_sc_hd__xnor2_1
*CAP
1 *384:B1 8.18893e-05
2 *382:Y 8.18893e-05
3 *384:B1 *309:A0 3.50746e-05
4 *384:B1 *382:A 1.32056e-05
5 *384:B1 *384:A2 7.45474e-05
6 *384:B1 *384:C1 2.78539e-05
*RES
1 *382:Y *384:B1 20.8143 
*END

*D_NET *35 0.000768885
*CONN
*I *384:C1 I *D sky130_fd_sc_hd__o221a_1
*I *383:Y O *D sky130_fd_sc_hd__nand2_1
*CAP
1 *384:C1 0.000225315
2 *383:Y 0.000225315
3 *384:C1 *309:A0 8.03659e-06
4 *384:C1 *382:A 0.000185124
5 *384:C1 *383:A 5.50052e-05
6 *382:B *384:C1 4.22349e-05
7 *384:B1 *384:C1 2.78539e-05
*RES
1 *383:Y *384:C1 22.85 
*END

*D_NET *36 0.0125314
*CONN
*I *320:A I *D sky130_fd_sc_hd__nand2_1
*I *321:C1 I *D sky130_fd_sc_hd__a211o_1
*I *306:A I *D sky130_fd_sc_hd__or2_1
*I *330:C1 I *D sky130_fd_sc_hd__a211o_1
*I *353:A1 I *D sky130_fd_sc_hd__a21o_1
*I *344:A1 I *D sky130_fd_sc_hd__a21o_1
*I *363:A1 I *D sky130_fd_sc_hd__a21o_1
*I *375:A1 I *D sky130_fd_sc_hd__a21o_1
*I *305:Y O *D sky130_fd_sc_hd__inv_2
*CAP
1 *320:A 0.000569481
2 *321:C1 0
3 *306:A 0
4 *330:C1 7.90858e-05
5 *353:A1 0.000482766
6 *344:A1 0.000563455
7 *363:A1 0.000482018
8 *375:A1 0.000310387
9 *305:Y 0
10 *36:96 0.000737998
11 *36:44 0.00149644
12 *36:38 0.000875487
13 *36:21 0.00102908
14 *36:17 0.000264607
15 *36:15 0.000376549
16 *36:4 0.000454696
17 *320:A *318:B 3.84632e-05
18 *320:A *319:A 1.24368e-05
19 *320:A *322:B1 0.000276926
20 *320:A *330:A1 0.000201785
21 *320:A *114:12 3.92866e-05
22 *320:A *114:16 1.82328e-05
23 *320:A *121:91 2.99064e-05
24 *330:C1 *325:A 0.000163249
25 *330:C1 *419:A 0.000314346
26 *344:A1 *336:A 0.000170769
27 *344:A1 *338:A 7.85696e-05
28 *344:A1 *338:B 5.46536e-05
29 *344:A1 *341:A 5.08729e-05
30 *344:A1 *344:A2 8.86995e-05
31 *344:A1 *344:B1 0.000214784
32 *344:A1 *133:10 0.000173015
33 *353:A1 *343:C1 4.23557e-05
34 *353:A1 *359:A3 0.000140342
35 *353:A1 *111:16 0.000128086
36 *353:A1 *133:14 5.33005e-05
37 *363:A1 *363:A2 1.34548e-05
38 *363:A1 *363:B1 9.99853e-05
39 *363:A1 *121:74 2.15245e-05
40 *375:A1 *391:D 4.76637e-06
41 *36:15 *121:91 9.67754e-05
42 *36:17 *37:10 2.29031e-05
43 *36:17 *121:91 5.80494e-05
44 *36:21 *305:A 2.00123e-05
45 *36:21 *121:74 0
46 *36:21 *121:91 4.27842e-06
47 *36:21 *122:81 0.00013688
48 *36:38 *324:A1 5.75147e-05
49 *36:38 *325:B 0.000124012
50 *36:38 *394:A 0.000193255
51 *36:38 *43:10 5.83233e-05
52 *36:38 *43:12 5.72388e-05
53 *36:38 *43:14 7.92596e-06
54 *36:38 *138:39 5.83233e-05
55 *36:44 *333:A1 2.61337e-05
56 *36:44 *334:A_N 1.69115e-05
57 *36:44 *337:B 0
58 *36:44 *343:A1 0.000102346
59 *36:44 *343:B1 0.000169095
60 *36:44 *394:A 0.000520045
61 *36:44 *43:14 0.000173621
62 *36:44 *116:72 2.56694e-05
63 *36:44 *133:10 2.22419e-05
64 *36:44 *133:36 4.19606e-05
65 *36:96 *305:A 8.46259e-06
66 *36:96 *37:10 2.53112e-06
67 *36:96 *37:40 1.2294e-05
68 *36:96 *121:91 0.000362771
*RES
1 *305:Y *36:4 9.3 
2 *36:4 *375:A1 12.7107 
3 *36:4 *36:15 6.26786 
4 *36:15 *36:17 1.64286 
5 *36:17 *36:21 8.875 
6 *36:21 *363:A1 15.175 
7 *36:21 *36:38 11.2143 
8 *36:38 *36:44 11.5179 
9 *36:44 *344:A1 26.3714 
10 *36:44 *353:A1 20.0857 
11 *36:38 *330:C1 17.2018 
12 *36:17 *306:A 13.8 
13 *36:15 *36:96 8.64286 
14 *36:96 *321:C1 9.3 
15 *36:96 *320:A 27.6036 
*END

*D_NET *37 0.0070106
*CONN
*I *307:B1 I *D sky130_fd_sc_hd__o21a_1
*I *384:A1 I *D sky130_fd_sc_hd__o221a_1
*I *331:A2 I *D sky130_fd_sc_hd__o211a_1
*I *322:A2 I *D sky130_fd_sc_hd__o211a_1
*I *306:X O *D sky130_fd_sc_hd__or2_1
*CAP
1 *307:B1 0.000440117
2 *384:A1 0.000459367
3 *331:A2 0.000436091
4 *322:A2 4.59489e-05
5 *306:X 0.000101929
6 *37:40 0.00126683
7 *37:16 0.000946343
8 *37:10 0.000933581
9 *307:B1 *308:A 5.65955e-05
10 *307:B1 *309:A0 3.69047e-06
11 *307:B1 *310:A 0.000124833
12 *307:B1 *395:A 7.2344e-05
13 *322:A2 *318:B 0
14 *322:A2 *330:A1 1.48252e-05
15 *322:A2 *114:12 1.00332e-05
16 *331:A2 *318:B 2.48421e-05
17 *331:A2 *330:A1 0
18 *331:A2 *331:B1 1.00332e-05
19 *331:A2 *46:16 3.6337e-05
20 *331:A2 *115:10 0.000117196
21 *331:A2 *115:16 1.02504e-05
22 *384:A1 *309:A0 0.000753433
23 *384:A1 *392:D 0.000172352
24 *37:10 *313:A 2.11336e-05
25 *37:16 *321:A2 2.02933e-05
26 *37:16 *330:A1 8.91258e-06
27 *37:16 *114:16 0.000223661
28 *37:16 *121:91 0.000351346
29 *37:40 *309:A1 0.00031055
30 *37:40 *395:A 0
31 *37:40 *138:33 0
32 *393:A *331:A2 0
33 *36:17 *37:10 2.29031e-05
34 *36:96 *37:10 2.53112e-06
35 *36:96 *37:40 1.2294e-05
*RES
1 *306:X *37:10 15.3714 
2 *37:10 *37:16 15.2857 
3 *37:16 *322:A2 14.5321 
4 *37:16 *331:A2 21.2464 
5 *37:10 *37:40 12.2143 
6 *37:40 *384:A1 20.1393 
7 *37:40 *307:B1 26.4607 
*END

*D_NET *38 0.00138319
*CONN
*I *309:A1 I *D sky130_fd_sc_hd__mux2_1
*I *307:X O *D sky130_fd_sc_hd__o21a_1
*CAP
1 *309:A1 0.000245225
2 *307:X 0.000245225
3 *309:A1 *308:A 5.12608e-05
4 *309:A1 *308:B 3.30237e-05
5 *309:A1 *309:S 0.000497901
6 *37:40 *309:A1 0.00031055
*RES
1 *307:X *309:A1 34.975 
*END

*D_NET *39 0.00123641
*CONN
*I *309:S I *D sky130_fd_sc_hd__mux2_1
*I *308:Y O *D sky130_fd_sc_hd__nand2_1
*CAP
1 *309:S 0.000296127
2 *308:Y 0.000296127
3 *309:S *420:A 0.000146261
4 *309:A1 *309:S 0.000497901
*RES
1 *308:Y *309:S 33.85 
*END

*D_NET *40 0.00153748
*CONN
*I *310:A I *D sky130_fd_sc_hd__clkbuf_1
*I *309:X O *D sky130_fd_sc_hd__mux2_1
*CAP
1 *310:A 0.000405188
2 *309:X 0.000405188
3 *310:A *395:A 5.49995e-05
4 *310:A *112:8 0.000103968
5 *310:A *138:10 0.0004433
6 *307:B1 *310:A 0.000124833
*RES
1 *309:X *310:A 36.6536 
*END

*D_NET *41 0.00173357
*CONN
*I *319:A I *D sky130_fd_sc_hd__xnor2_1
*I *323:A1 I *D sky130_fd_sc_hd__a21o_1
*I *311:X O *D sky130_fd_sc_hd__or2b_1
*CAP
1 *319:A 0.000146562
2 *323:A1 3.28489e-05
3 *311:X 0.00026006
4 *41:10 0.00043947
5 *319:A *320:B 5.50052e-05
6 *319:A *322:B1 2.24804e-05
7 *319:A *124:14 0.00026969
8 *323:A1 *318:B 3.9733e-05
9 *323:A1 *124:14 7.89362e-05
10 *41:10 *318:A_N 5.15546e-05
11 *41:10 *318:B 0.000187979
12 *41:10 *386:D 7.62718e-05
13 *41:10 *114:12 5.04589e-05
14 *41:10 *124:14 1.00887e-05
15 *320:A *319:A 1.24368e-05
*RES
1 *311:X *41:10 18.5321 
2 *41:10 *323:A1 14.8357 
3 *41:10 *319:A 17.6571 
*END

*D_NET *42 0.000455476
*CONN
*I *313:A I *D sky130_fd_sc_hd__buf_2
*I *312:X O *D sky130_fd_sc_hd__or2b_1
*CAP
1 *313:A 0.000127947
2 *312:X 0.000127947
3 *313:A *312:A 6.05161e-06
4 *313:A *121:81 5.50052e-05
5 *313:A *122:81 0.000117392
6 *37:10 *313:A 2.11336e-05
*RES
1 *312:X *313:A 21.6179 
*END

*D_NET *43 0.0110888
*CONN
*I *315:A2 I *D sky130_fd_sc_hd__a21oi_1
*I *314:C I *D sky130_fd_sc_hd__and3_1
*I *324:B1 I *D sky130_fd_sc_hd__o21a_1
*I *354:A2 I *D sky130_fd_sc_hd__a211oi_1
*I *345:B1 I *D sky130_fd_sc_hd__o21a_1
*I *355:B1 I *D sky130_fd_sc_hd__o311a_1
*I *364:B1 I *D sky130_fd_sc_hd__o31a_1
*I *380:A2 I *D sky130_fd_sc_hd__a21o_1
*I *334:B I *D sky130_fd_sc_hd__nand3b_1
*I *333:A1 I *D sky130_fd_sc_hd__a21bo_1
*I *313:X O *D sky130_fd_sc_hd__buf_2
*CAP
1 *315:A2 0.000144364
2 *314:C 9.43031e-05
3 *324:B1 0
4 *354:A2 0.00012579
5 *345:B1 9.01667e-05
6 *355:B1 0
7 *364:B1 0.000110433
8 *380:A2 0.000295582
9 *334:B 0.000256891
10 *333:A1 5.56314e-05
11 *313:X 0
12 *43:95 0.000392094
13 *43:80 0.000200721
14 *43:65 0.000313448
15 *43:44 0.00170997
16 *43:14 0.000521832
17 *43:12 0.00150833
18 *43:10 0.000116766
19 *43:8 0.000234136
20 *43:6 0.0002305
21 *314:C *314:A 0.000126435
22 *315:A2 *315:A1 9.58181e-05
23 *315:A2 *138:35 4.37542e-05
24 *333:A1 *334:A_N 0.000171413
25 *333:A1 *343:C1 1.00375e-05
26 *333:A1 *60:20 0.0001399
27 *334:B *334:A_N 0.000367137
28 *334:B *60:16 2.73407e-05
29 *334:B *62:10 2.51343e-06
30 *345:B1 *345:A2 6.24469e-05
31 *345:B1 *121:12 4.79842e-05
32 *354:A2 *354:A1 5.52302e-05
33 *354:A2 *354:B1 2.14757e-05
34 *354:A2 *354:C1 0.000141131
35 *354:A2 *80:6 5.65955e-05
36 *364:B1 *355:A2 5.65955e-05
37 *364:B1 *355:C1 5.65955e-05
38 *380:A2 *365:B 3.4867e-05
39 *380:A2 *373:A1 4.17902e-05
40 *380:A2 *373:A2 3.50166e-05
41 *380:A2 *373:B1 0.000168698
42 *380:A2 *89:10 0.000344988
43 *380:A2 *119:23 3.32723e-05
44 *380:A2 *121:10 0.000124842
45 *380:A2 *122:16 0
46 *380:A2 *135:8 0.000140907
47 *380:A2 *135:17 9.83388e-05
48 *43:8 *314:B 6.23785e-05
49 *43:8 *122:81 1.8441e-05
50 *43:8 *138:35 8.48601e-05
51 *43:8 *138:39 1.52978e-05
52 *43:10 *314:B 5.84075e-05
53 *43:10 *138:39 3.25078e-05
54 *43:12 *314:B 2.84494e-05
55 *43:12 *325:B 7.74135e-05
56 *43:12 *122:81 2.5959e-05
57 *43:14 *325:B 5.51649e-05
58 *43:14 *343:C1 7.30326e-05
59 *43:14 *122:47 3.15432e-05
60 *43:14 *122:81 2.99751e-05
61 *43:44 *325:A 1.24368e-05
62 *43:44 *390:CLK 7.94535e-05
63 *43:44 *419:A 4.20581e-05
64 *43:44 *135:17 0.000297967
65 *43:44 *135:28 9.58126e-05
66 *43:65 *356:B 5.74121e-05
67 *43:80 *355:A2 5.50052e-05
68 *43:80 *355:A3 6.05161e-06
69 *43:95 *345:A2 3.17148e-05
70 *43:95 *355:A1 2.64602e-05
71 *43:95 *355:A2 5.49995e-05
72 *43:95 *355:A3 0.000216977
73 *43:95 *356:B 0.000221234
74 *43:95 *60:20 5.33005e-05
75 *43:95 *80:6 1.51489e-05
76 *36:38 *43:10 5.83233e-05
77 *36:38 *43:12 5.72388e-05
78 *36:38 *43:14 7.92596e-06
79 *36:44 *333:A1 2.61337e-05
80 *36:44 *43:14 0.000173621
*RES
1 *313:X *43:6 13.8 
2 *43:6 *43:8 2.55357 
3 *43:8 *43:10 1.64286 
4 *43:10 *43:12 1.94643 
5 *43:12 *43:14 5.28571 
6 *43:14 *333:A1 15.8893 
7 *43:14 *334:B 18.7643 
8 *43:12 *43:44 21.6071 
9 *43:44 *380:A2 26.5321 
10 *43:44 *43:65 7.35714 
11 *43:65 *364:B1 15.2821 
12 *43:65 *43:80 5.03571 
13 *43:80 *355:B1 9.3 
14 *43:80 *43:95 13.9464 
15 *43:95 *345:B1 20.4786 
16 *43:95 *354:A2 12.3179 
17 *43:10 *324:B1 13.8 
18 *43:8 *314:C 15.0411 
19 *43:6 *315:A2 16.6036 
*END

*D_NET *44 0.00177464
*CONN
*I *316:A1 I *D sky130_fd_sc_hd__o21a_1
*I *317:B I *D sky130_fd_sc_hd__or3_1
*I *314:X O *D sky130_fd_sc_hd__and3_1
*CAP
1 *316:A1 2.58799e-05
2 *317:B 0.000259392
3 *314:X 0.000388601
4 *44:10 0.000673873
5 *316:A1 *114:39 5.48781e-05
6 *317:B *317:C 0.0001429
7 *317:B *45:6 5.33005e-05
8 *317:B *124:14 5.50052e-05
9 *317:B *124:23 9.76435e-06
10 *44:10 *314:A 3.55552e-05
11 *44:10 *114:39 7.54868e-05
*RES
1 *314:X *44:10 18.6571 
2 *44:10 *317:B 18.1929 
3 *44:10 *316:A1 14.5321 
*END

*D_NET *45 0.000648739
*CONN
*I *317:C I *D sky130_fd_sc_hd__or3_1
*I *316:A2 I *D sky130_fd_sc_hd__o21a_1
*I *315:Y O *D sky130_fd_sc_hd__a21oi_1
*CAP
1 *317:C 9.03023e-05
2 *316:A2 0
3 *315:Y 4.52007e-05
4 *45:6 0.000135503
5 *317:C *316:B1 5.24378e-06
6 *317:C *321:B1 2.55889e-05
7 *317:C *124:23 0.000126649
8 *45:6 *315:B1 1.83053e-05
9 *45:6 *321:B1 5.74499e-06
10 *317:B *317:C 0.0001429
11 *317:B *45:6 5.33005e-05
*RES
1 *315:Y *45:6 10.2464 
2 *45:6 *316:A2 9.3 
3 *45:6 *317:C 12.5857 
*END

*D_NET *46 0.00187317
*CONN
*I *318:A_N I *D sky130_fd_sc_hd__and2b_1
*I *323:B1 I *D sky130_fd_sc_hd__a21o_1
*I *316:X O *D sky130_fd_sc_hd__o21a_1
*CAP
1 *318:A_N 0.000229183
2 *323:B1 0
3 *316:X 0.000500067
4 *46:16 0.00072925
5 *318:A_N *319:B 0
6 *318:A_N *386:D 0.000125359
7 *318:A_N *124:14 0.00011632
8 *46:16 *330:A1 2.29031e-05
9 *46:16 *115:10 2.92634e-05
10 *46:16 *124:14 3.29297e-05
11 *331:A2 *46:16 3.6337e-05
12 *41:10 *318:A_N 5.15546e-05
*RES
1 *316:X *46:16 29.6036 
2 *46:16 *323:B1 13.8 
3 *46:16 *318:A_N 18.4786 
*END

*D_NET *47 0.00124435
*CONN
*I *318:B I *D sky130_fd_sc_hd__and2b_1
*I *323:A2 I *D sky130_fd_sc_hd__a21o_1
*I *317:X O *D sky130_fd_sc_hd__or3_1
*CAP
1 *318:B 0.000303879
2 *323:A2 5.18085e-05
3 *317:X 0
4 *47:4 0.000355687
5 *318:B *386:D 6.8646e-06
6 *318:B *114:12 0.000166416
7 *323:A2 *321:B1 0
8 *323:A2 *124:14 5.66971e-05
9 *323:A2 *124:23 1.19813e-05
10 *320:A *318:B 3.84632e-05
11 *322:A2 *318:B 0
12 *323:A1 *318:B 3.9733e-05
13 *331:A2 *318:B 2.48421e-05
14 *41:10 *318:B 0.000187979
*RES
1 *317:X *47:4 9.3 
2 *47:4 *323:A2 10.5679 
3 *47:4 *318:B 25.0679 
*END

*D_NET *48 0.000294973
*CONN
*I *319:B I *D sky130_fd_sc_hd__xnor2_1
*I *318:X O *D sky130_fd_sc_hd__and2b_1
*CAP
1 *319:B 0.000138702
2 *318:X 0.000138702
3 *319:B *114:12 1.757e-05
4 *318:A_N *319:B 0
*RES
1 *318:X *319:B 29.7786 
*END

*D_NET *49 0.000174807
*CONN
*I *320:B I *D sky130_fd_sc_hd__nand2_1
*I *319:Y O *D sky130_fd_sc_hd__xnor2_1
*CAP
1 *320:B 5.9901e-05
2 *319:Y 5.9901e-05
3 *319:A *320:B 5.50052e-05
*RES
1 *319:Y *320:B 19.8679 
*END

*D_NET *50 0.000747053
*CONN
*I *322:B1 I *D sky130_fd_sc_hd__o211a_1
*I *320:Y O *D sky130_fd_sc_hd__nand2_1
*CAP
1 *322:B1 0.000148375
2 *320:Y 0.000148375
3 *322:B1 *386:D 9.4749e-05
4 *322:B1 *114:16 5.61463e-05
5 *319:A *322:B1 2.24804e-05
6 *320:A *322:B1 0.000276926
*RES
1 *320:Y *322:B1 22.85 
*END

*D_NET *51 0.000112026
*CONN
*I *322:C1 I *D sky130_fd_sc_hd__o211a_1
*I *321:X O *D sky130_fd_sc_hd__a211o_1
*CAP
1 *322:C1 1.42517e-05
2 *321:X 1.42517e-05
3 *322:C1 *330:A1 2.85234e-05
4 *322:C1 *114:16 5.49995e-05
*RES
1 *321:X *322:C1 19.1357 
*END

*D_NET *52 0.00328122
*CONN
*I *327:A I *D sky130_fd_sc_hd__nand2_1
*I *328:A I *D sky130_fd_sc_hd__or2_1
*I *340:A1 I *D sky130_fd_sc_hd__a21oi_1
*I *348:A1 I *D sky130_fd_sc_hd__a211o_1
*I *323:X O *D sky130_fd_sc_hd__a21o_1
*CAP
1 *327:A 8.4668e-05
2 *328:A 0
3 *340:A1 0.000216176
4 *348:A1 0
5 *323:X 0.000551651
6 *52:42 0.000113587
7 *52:20 0.000653179
8 *52:10 0.00101757
9 *327:A *328:B 4.64641e-05
10 *327:A *132:10 2.70242e-05
11 *340:A1 *340:A2 2.23592e-05
12 *340:A1 *348:A2 0.00022477
13 *340:A1 *67:12 1.35455e-05
14 *52:10 *329:A2 0.000121891
15 *52:10 *387:CLK 0
16 *52:20 *387:CLK 0.000130547
17 *52:20 *55:12 0
18 *52:20 *67:12 2.83284e-06
19 *52:42 *132:10 5.49544e-05
20 *393:A *52:10 0
*RES
1 *323:X *52:10 23.3714 
2 *52:10 *52:20 7.92857 
3 *52:20 *348:A1 13.8 
4 *52:20 *340:A1 17.1214 
5 *52:10 *52:42 5.03571 
6 *52:42 *328:A 9.3 
7 *52:42 *327:A 11.0857 
*END

*D_NET *53 0.000489898
*CONN
*I *325:B I *D sky130_fd_sc_hd__xnor2_1
*I *324:X O *D sky130_fd_sc_hd__o21a_1
*CAP
1 *325:B 9.00035e-05
2 *324:X 9.00035e-05
3 *325:B *114:45 5.33005e-05
4 *36:38 *325:B 0.000124012
5 *43:12 *325:B 7.74135e-05
6 *43:14 *325:B 5.51649e-05
*RES
1 *324:X *325:B 29.7786 
*END

*D_NET *54 0.00257057
*CONN
*I *326:B I *D sky130_fd_sc_hd__xor2_1
*I *339:B I *D sky130_fd_sc_hd__and2_1
*I *325:Y O *D sky130_fd_sc_hd__xnor2_1
*CAP
1 *326:B 3.04135e-05
2 *339:B 0.000235924
3 *325:Y 0.000488755
4 *54:10 0.000755092
5 *326:B *330:B1 5.33005e-05
6 *339:B *60:12 0
7 *54:10 *329:B1 7.58841e-05
8 *54:10 *419:A 0.000609972
9 *393:A *339:B 0.000174236
10 *393:A *54:10 0.000146991
*RES
1 *325:Y *54:10 21.6214 
2 *54:10 *339:B 18.2464 
3 *54:10 *326:B 14.3357 
*END

*D_NET *55 0.00262302
*CONN
*I *327:B I *D sky130_fd_sc_hd__nand2_1
*I *328:B I *D sky130_fd_sc_hd__or2_1
*I *340:A2 I *D sky130_fd_sc_hd__a21oi_1
*I *348:A2 I *D sky130_fd_sc_hd__a211o_1
*I *326:X O *D sky130_fd_sc_hd__xor2_1
*CAP
1 *327:B 0
2 *328:B 6.46906e-05
3 *340:A2 4.60846e-05
4 *348:A2 0.000142015
5 *326:X 0.000256319
6 *55:36 0.000136857
7 *55:12 0.000434284
8 *55:8 0.00057467
9 *328:B *132:10 0.000160268
10 *348:A2 *340:B1 5.52302e-05
11 *348:A2 *341:B 1.10868e-05
12 *348:A2 *348:B1 0.000125377
13 *55:8 *132:10 0.000270947
14 *55:12 *67:12 5.15999e-05
15 *327:A *328:B 4.64641e-05
16 *340:A1 *340:A2 2.23592e-05
17 *340:A1 *348:A2 0.00022477
18 *52:20 *55:12 0
*RES
1 *326:X *55:8 17.2107 
2 *55:8 *55:12 8.57143 
3 *55:12 *348:A2 13.6929 
4 *55:12 *340:A2 10.2464 
5 *55:8 *55:36 5.53571 
6 *55:36 *328:B 11.5143 
7 *55:36 *327:B 9.3 
*END

*D_NET *56 0.00108198
*CONN
*I *329:A1 I *D sky130_fd_sc_hd__a21o_1
*I *327:Y O *D sky130_fd_sc_hd__nand2_1
*CAP
1 *329:A1 0.000343637
2 *327:Y 0.000343637
3 *329:A1 *419:A 0.00039471
*RES
1 *327:Y *329:A1 32.4571 
*END

*D_NET *57 0.00053784
*CONN
*I *329:A2 I *D sky130_fd_sc_hd__a21o_1
*I *328:X O *D sky130_fd_sc_hd__or2_1
*CAP
1 *329:A2 0.000120255
2 *328:X 0.000120255
3 *329:A2 *387:CLK 3.51971e-05
4 *329:A2 *419:A 0.000140243
5 *52:10 *329:A2 0.000121891
*RES
1 *328:X *329:A2 30.6 
*END

*D_NET *58 0.000570411
*CONN
*I *331:B1 I *D sky130_fd_sc_hd__o211a_1
*I *329:X O *D sky130_fd_sc_hd__a21o_1
*CAP
1 *331:B1 0.000165907
2 *329:X 0.000165907
3 *331:B1 *329:B1 3.69047e-06
4 *331:B1 *331:C1 0.00013426
5 *331:B1 *419:A 6.92966e-06
6 *331:B1 *115:16 8.36843e-05
7 *331:A2 *331:B1 1.00332e-05
*RES
1 *329:X *331:B1 30.9036 
*END

*D_NET *59 0.00056805
*CONN
*I *331:C1 I *D sky130_fd_sc_hd__o211a_1
*I *330:X O *D sky130_fd_sc_hd__a211o_1
*CAP
1 *331:C1 0.000118309
2 *330:X 0.000118309
3 *331:C1 *325:A 5.65955e-05
4 *331:C1 *330:A1 9.31254e-05
5 *331:C1 *115:16 4.74514e-05
6 *331:B1 *331:C1 0.00013426
*RES
1 *330:X *331:C1 31.2071 
*END

*D_NET *60 0.00544097
*CONN
*I *334:C I *D sky130_fd_sc_hd__nand3b_1
*I *333:A2 I *D sky130_fd_sc_hd__a21bo_1
*I *355:A3 I *D sky130_fd_sc_hd__o311a_1
*I *345:A2 I *D sky130_fd_sc_hd__o21a_1
*I *332:X O *D sky130_fd_sc_hd__or3_2
*CAP
1 *334:C 0
2 *333:A2 1.83384e-05
3 *355:A3 0.000141944
4 *345:A2 8.18561e-05
5 *332:X 0.000450332
6 *60:20 0.00136326
7 *60:16 0.00124639
8 *60:12 0.000538927
9 *345:A2 *355:A1 6.30196e-05
10 *345:A2 *121:12 0
11 *355:A3 *121:12 0
12 *60:12 *330:A1 0.000150081
13 *60:12 *330:B1 0.000168634
14 *60:12 *332:A 5.45307e-05
15 *60:12 *332:C 3.69047e-06
16 *60:12 *114:39 3.12359e-05
17 *60:12 *114:45 0.000140714
18 *60:16 *334:A_N 0.000112072
19 *60:16 *61:10 9.83388e-05
20 *60:20 *334:A_N 4.38349e-05
21 *60:20 *357:A2 9.35794e-06
22 *60:20 *357:B1 7.49267e-05
23 *60:20 *369:B1_N 1.59373e-05
24 *60:20 *80:6 9.58181e-05
25 *333:A1 *60:20 0.0001399
26 *334:B *60:16 2.73407e-05
27 *339:B *60:12 0
28 *345:B1 *345:A2 6.24469e-05
29 *393:A *60:12 0
30 *43:80 *355:A3 6.05161e-06
31 *43:95 *345:A2 3.17148e-05
32 *43:95 *355:A3 0.000216977
33 *43:95 *60:20 5.33005e-05
*RES
1 *332:X *60:12 27.175 
2 *60:12 *60:16 2.60714 
3 *60:16 *60:20 22.2857 
4 *60:20 *345:A2 15.7464 
5 *60:20 *355:A3 16.8893 
6 *60:16 *333:A2 9.72857 
7 *60:12 *334:C 9.3 
*END

*D_NET *61 0.00173063
*CONN
*I *335:A1 I *D sky130_fd_sc_hd__a21o_1
*I *337:B I *D sky130_fd_sc_hd__and3_1
*I *333:X O *D sky130_fd_sc_hd__a21bo_1
*CAP
1 *335:A1 0.000225236
2 *337:B 0.000264471
3 *333:X 0.000121942
4 *61:10 0.000611649
5 *335:A1 *335:A2 0.000113402
6 *335:A1 *394:A 5.49544e-05
7 *335:A1 *75:18 1.47872e-05
8 *337:B *337:C 7.03141e-05
9 *337:B *62:10 2.30245e-05
10 *337:B *111:16 9.82775e-05
11 *61:10 *62:10 3.42301e-05
12 *36:44 *337:B 0
13 *60:16 *61:10 9.83388e-05
*RES
1 *333:X *61:10 15.7821 
2 *61:10 *337:B 18.1214 
3 *61:10 *335:A1 16.8 
*END

*D_NET *62 0.00174955
*CONN
*I *335:A2 I *D sky130_fd_sc_hd__a21o_1
*I *337:C I *D sky130_fd_sc_hd__and3_1
*I *334:Y O *D sky130_fd_sc_hd__nand3b_1
*CAP
1 *335:A2 9.21731e-05
2 *337:C 0.000265034
3 *334:Y 0.000172508
4 *62:10 0.000529716
5 *335:A2 *394:A 5.65955e-05
6 *335:A2 *75:18 0.000354596
7 *337:C *338:B 2.91851e-06
8 *337:C *111:16 3.25264e-05
9 *334:B *62:10 2.51343e-06
10 *335:A1 *335:A2 0.000113402
11 *337:B *337:C 7.03141e-05
12 *337:B *62:10 2.30245e-05
13 *393:A *62:10 0
14 *61:10 *62:10 3.42301e-05
*RES
1 *334:Y *62:10 16.3893 
2 *62:10 *337:C 18.2286 
3 *62:10 *335:A2 17.2107 
*END

*D_NET *63 0.00417137
*CONN
*I *336:A I *D sky130_fd_sc_hd__inv_2
*I *359:A1 I *D sky130_fd_sc_hd__a32o_1
*I *349:A I *D sky130_fd_sc_hd__nand2_1
*I *370:A1 I *D sky130_fd_sc_hd__a31oi_1
*I *335:X O *D sky130_fd_sc_hd__a21o_1
*CAP
1 *336:A 0.000186507
2 *359:A1 0
3 *349:A 8.57646e-05
4 *370:A1 0
5 *335:X 0.000189438
6 *63:36 0.000270074
7 *63:28 0.000711834
8 *63:12 0.000903469
9 *349:A *370:A3 6.74147e-05
10 *349:A *116:40 0.000180877
11 *63:12 *343:B1 5.33005e-05
12 *63:12 *343:C1 0.000146991
13 *63:12 *133:10 0.00014852
14 *63:12 *133:36 0.000160667
15 *63:28 *342:B1 0.000219733
16 *63:28 *350:B 1.34741e-05
17 *63:28 *353:A2 2.16315e-05
18 *63:28 *353:B1 8.25843e-06
19 *63:28 *359:A3 5.38444e-06
20 *63:28 *389:CLK 5.6647e-05
21 *63:28 *389:D 0.000147672
22 *63:28 *74:12 0.000123352
23 *63:36 *350:B 8.21712e-05
24 *63:36 *353:B1 1.81887e-05
25 *63:36 *359:B1 7.63435e-05
26 *63:36 *370:A2 3.2046e-05
27 *63:36 *370:B1 6.35274e-05
28 *63:36 *116:12 2.73164e-05
29 *344:A1 *336:A 0.000170769
*RES
1 *335:X *63:12 22.9071 
2 *63:12 *63:28 19.9821 
3 *63:28 *63:36 13.2143 
4 *63:36 *370:A1 9.3 
5 *63:36 *349:A 12.2911 
6 *63:28 *359:A1 9.3 
7 *63:12 *336:A 13.1214 
*END

*D_NET *64 0.000201834
*CONN
*I *338:A I *D sky130_fd_sc_hd__nor2_1
*I *336:Y O *D sky130_fd_sc_hd__inv_2
*CAP
1 *338:A 3.42125e-05
2 *336:Y 3.42125e-05
3 *338:A *344:B1 5.4839e-05
4 *344:A1 *338:A 7.85696e-05
*RES
1 *336:Y *338:A 19.9571 
*END

*D_NET *65 0.00237855
*CONN
*I *348:B1 I *D sky130_fd_sc_hd__a211o_1
*I *338:B I *D sky130_fd_sc_hd__nor2_1
*I *337:X O *D sky130_fd_sc_hd__and3_1
*CAP
1 *348:B1 0.000228471
2 *338:B 0.000195761
3 *337:X 0
4 *65:6 0.000424232
5 *338:B *341:A 9.83388e-05
6 *338:B *341:B 8.69881e-05
7 *338:B *111:12 5.7119e-05
8 *348:B1 *341:B 0.00053881
9 *348:B1 *75:18 0.000443618
10 *348:B1 *111:12 0.000122259
11 *337:C *338:B 2.91851e-06
12 *344:A1 *338:B 5.46536e-05
13 *348:A2 *348:B1 0.000125377
*RES
1 *337:X *65:6 13.8 
2 *65:6 *338:B 18.5679 
3 *65:6 *348:B1 22.1571 
*END

*D_NET *66 0.000432127
*CONN
*I *341:A I *D sky130_fd_sc_hd__xnor2_1
*I *338:Y O *D sky130_fd_sc_hd__nor2_1
*CAP
1 *341:A 4.93092e-05
2 *338:Y 4.93092e-05
3 *341:A *344:B1 0.000184297
4 *338:B *341:A 9.83388e-05
5 *344:A1 *341:A 5.08729e-05
*RES
1 *338:Y *341:A 20.7964 
*END

*D_NET *67 0.000840843
*CONN
*I *340:B1 I *D sky130_fd_sc_hd__a21oi_1
*I *348:C1 I *D sky130_fd_sc_hd__a211o_1
*I *339:X O *D sky130_fd_sc_hd__and2_1
*CAP
1 *340:B1 1.08481e-05
2 *348:C1 0
3 *339:X 0.000332474
4 *67:12 0.000343322
5 *340:B1 *341:B 3.09893e-05
6 *340:A1 *67:12 1.35455e-05
7 *348:A2 *340:B1 5.52302e-05
8 *52:20 *67:12 2.83284e-06
9 *55:12 *67:12 5.15999e-05
*RES
1 *339:X *67:12 22.5321 
2 *67:12 *348:C1 9.3 
3 *67:12 *340:B1 9.83571 
*END

*D_NET *68 0.00192079
*CONN
*I *341:B I *D sky130_fd_sc_hd__xnor2_1
*I *340:Y O *D sky130_fd_sc_hd__a21oi_1
*CAP
1 *341:B 0.00047509
2 *340:Y 0.00047509
3 *341:B *387:CLK 0.000185403
4 *341:B *111:12 0.000117333
5 *338:B *341:B 8.69881e-05
6 *340:B1 *341:B 3.09893e-05
7 *348:A2 *341:B 1.10868e-05
8 *348:B1 *341:B 0.00053881
*RES
1 *340:Y *341:B 38.1536 
*END

*D_NET *69 0.000176999
*CONN
*I *344:A2 I *D sky130_fd_sc_hd__a21o_1
*I *341:Y O *D sky130_fd_sc_hd__xnor2_1
*CAP
1 *344:A2 4.41495e-05
2 *341:Y 4.41495e-05
3 *344:A1 *344:A2 8.86995e-05
*RES
1 *341:Y *344:A2 19.8679 
*END

*D_NET *70 0.00114743
*CONN
*I *343:B1 I *D sky130_fd_sc_hd__o211a_1
*I *342:X O *D sky130_fd_sc_hd__a21o_1
*CAP
1 *343:B1 0.000267778
2 *342:X 0.000267778
3 *343:B1 *335:B1 2.0305e-05
4 *343:B1 *342:A2 9.75679e-05
5 *343:B1 *343:A1 1.39782e-05
6 *343:B1 *75:18 0.000146074
7 *343:B1 *111:16 5.49544e-05
8 *343:B1 *133:14 5.65955e-05
9 *36:44 *343:B1 0.000169095
10 *63:12 *343:B1 5.33005e-05
*RES
1 *342:X *343:B1 33.3857 
*END

*D_NET *71 0.00157021
*CONN
*I *344:B1 I *D sky130_fd_sc_hd__a21o_1
*I *343:X O *D sky130_fd_sc_hd__o211a_1
*CAP
1 *344:B1 0.000558143
2 *343:X 0.000558143
3 *338:A *344:B1 5.4839e-05
4 *341:A *344:B1 0.000184297
5 *344:A1 *344:B1 0.000214784
*RES
1 *343:X *344:B1 35.6536 
*END

*D_NET *72 0.00222941
*CONN
*I *364:A3 I *D sky130_fd_sc_hd__o31a_1
*I *354:B1 I *D sky130_fd_sc_hd__a211oi_1
*I *346:B I *D sky130_fd_sc_hd__xnor2_1
*I *345:X O *D sky130_fd_sc_hd__o21a_1
*CAP
1 *364:A3 0.000151073
2 *354:B1 7.28295e-05
3 *346:B 0.00017145
4 *345:X 0.000129714
5 *72:19 0.000316433
6 *72:8 0.000393695
7 *346:B *342:B1 7.70015e-05
8 *346:B *346:A 7.57318e-05
9 *346:B *117:10 9.14222e-05
10 *346:B *121:12 6.93072e-05
11 *354:B1 *354:C1 9.58181e-05
12 *364:A3 *354:C1 0.000125371
13 *364:A3 *355:A2 5.74499e-06
14 *364:A3 *355:C1 2.59355e-05
15 *364:A3 *117:8 2.61408e-05
16 *364:A3 *117:54 9.27921e-06
17 *72:19 *354:C1 3.34295e-05
18 *72:19 *117:8 4.58192e-05
19 *72:19 *117:10 0.000102542
20 *72:19 *121:12 0.000124064
21 *354:A2 *354:B1 2.14757e-05
22 *401:A *364:A3 6.51302e-05
*RES
1 *345:X *72:8 15.1571 
2 *72:8 *346:B 18.175 
3 *72:8 *72:19 3.46429 
4 *72:19 *354:B1 15.1571 
5 *72:19 *364:A3 16.8179 
*END

*D_NET *73 0.0021395
*CONN
*I *359:B1 I *D sky130_fd_sc_hd__a32o_1
*I *369:A2 I *D sky130_fd_sc_hd__a21bo_1
*I *347:B I *D sky130_fd_sc_hd__xor2_1
*I *346:Y O *D sky130_fd_sc_hd__xnor2_1
*CAP
1 *359:B1 9.34465e-05
2 *369:A2 0
3 *347:B 0
4 *346:Y 0.000100961
5 *73:21 0.000338613
6 *73:8 0.000346128
7 *359:B1 *353:B1 3.38032e-05
8 *359:B1 *359:B2 0.000181107
9 *73:8 *342:B1 4.7812e-05
10 *73:21 *342:B1 0.000138842
11 *73:21 *347:A 5.66971e-05
12 *73:21 *74:8 0.000314701
13 *73:21 *116:12 0.000195718
14 *73:21 *134:12 0.000215331
15 *63:36 *359:B1 7.63435e-05
*RES
1 *346:Y *73:8 11.0857 
2 *73:8 *347:B 9.3 
3 *73:8 *73:21 16.6071 
4 *73:21 *369:A2 9.3 
5 *73:21 *359:B1 11.6839 
*END

*D_NET *74 0.00220143
*CONN
*I *350:A I *D sky130_fd_sc_hd__xnor2_1
*I *359:A2 I *D sky130_fd_sc_hd__a32o_1
*I *370:A2 I *D sky130_fd_sc_hd__a31oi_1
*I *347:X O *D sky130_fd_sc_hd__xor2_1
*CAP
1 *350:A 0
2 *359:A2 2.60267e-05
3 *370:A2 0.000199745
4 *347:X 0.000331561
5 *74:12 0.000319371
6 *74:8 0.000425161
7 *370:A2 *350:B 0.000138425
8 *370:A2 *360:B 0
9 *370:A2 *370:B1 9.71202e-06
10 *74:8 *342:B1 0.000109185
11 *74:12 *350:B 0.000172147
12 *63:28 *74:12 0.000123352
13 *63:36 *370:A2 3.2046e-05
14 *73:21 *74:8 0.000314701
*RES
1 *347:X *74:8 15.9071 
2 *74:8 *74:12 6.75 
3 *74:12 *370:A2 17.7286 
4 *74:12 *359:A2 14.3357 
5 *74:8 *350:A 9.3 
*END

*D_NET *75 0.00489997
*CONN
*I *359:A3 I *D sky130_fd_sc_hd__a32o_1
*I *349:B I *D sky130_fd_sc_hd__nand2_1
*I *370:A3 I *D sky130_fd_sc_hd__a31oi_1
*I *348:X O *D sky130_fd_sc_hd__a211o_1
*CAP
1 *359:A3 0.00026556
2 *349:B 2.80478e-05
3 *370:A3 0.000109908
4 *348:X 0.000699461
5 *75:20 0.000271755
6 *75:18 0.00109882
7 *349:B *116:40 2.82942e-05
8 *359:A3 *353:A2 5.49544e-05
9 *359:A3 *353:B1 0.000139252
10 *359:A3 *389:CLK 2.50593e-05
11 *359:A3 *390:CLK 7.57318e-05
12 *359:A3 *111:16 2.12005e-05
13 *370:A3 *350:B 0.000138576
14 *370:A3 *116:40 2.15387e-05
15 *75:18 *335:B1 8.58815e-05
16 *75:18 *342:A2 0.000192362
17 *75:18 *116:40 0.000120732
18 *75:18 *116:49 0.000301678
19 *75:20 *116:40 4.89399e-05
20 *335:A1 *75:18 1.47872e-05
21 *335:A2 *75:18 0.000354596
22 *343:B1 *75:18 0.000146074
23 *348:B1 *75:18 0.000443618
24 *349:A *370:A3 6.74147e-05
25 *353:A1 *359:A3 0.000140342
26 *63:28 *359:A3 5.38444e-06
*RES
1 *348:X *75:18 26.7821 
2 *75:18 *75:20 2.17857 
3 *75:20 *370:A3 12.2107 
4 *75:20 *349:B 10.5232 
5 *75:18 *359:A3 24.2821 
*END

*D_NET *76 0.00106678
*CONN
*I *350:B I *D sky130_fd_sc_hd__xnor2_1
*I *349:Y O *D sky130_fd_sc_hd__nand2_1
*CAP
1 *350:B 0.000260993
2 *349:Y 0.000260993
3 *370:A2 *350:B 0.000138425
4 *370:A3 *350:B 0.000138576
5 *63:28 *350:B 1.34741e-05
6 *63:36 *350:B 8.21712e-05
7 *74:12 *350:B 0.000172147
*RES
1 *349:Y *350:B 33.3321 
*END

*D_NET *77 0.00035925
*CONN
*I *353:A2 I *D sky130_fd_sc_hd__a21o_1
*I *350:Y O *D sky130_fd_sc_hd__xnor2_1
*CAP
1 *353:A2 0.000109202
2 *350:Y 0.000109202
3 *353:A2 *353:B1 2.84109e-05
4 *353:A2 *389:CLK 3.5848e-05
5 *359:A3 *353:A2 5.49544e-05
6 *63:28 *353:A2 2.16315e-05
*RES
1 *350:Y *353:A2 29.7786 
*END

*D_NET *78 0.000333856
*CONN
*I *352:B1 I *D sky130_fd_sc_hd__o211a_1
*I *351:X O *D sky130_fd_sc_hd__a21o_1
*CAP
1 *352:B1 3.97776e-05
2 *351:X 3.97776e-05
3 *352:B1 *351:A2 0.000140908
4 *352:B1 *352:A1 7.83179e-05
5 *352:B1 *134:32 3.50746e-05
*RES
1 *351:X *352:B1 20.3857 
*END

*D_NET *79 0.00183155
*CONN
*I *353:B1 I *D sky130_fd_sc_hd__a21o_1
*I *352:X O *D sky130_fd_sc_hd__o211a_1
*CAP
1 *353:B1 0.000405064
2 *352:X 0.000405064
3 *353:B1 *352:C1 0.000227843
4 *353:B1 *359:B2 0.000226274
5 *353:B1 *360:B 5.65955e-05
6 *353:B1 *111:16 5.49544e-05
7 *353:B1 *134:45 0.000227843
8 *353:A2 *353:B1 2.84109e-05
9 *359:A3 *353:B1 0.000139252
10 *359:B1 *353:B1 3.38032e-05
11 *63:28 *353:B1 8.25843e-06
12 *63:36 *353:B1 1.81887e-05
*RES
1 *352:X *353:B1 28.2071 
*END

*D_NET *80 0.00176282
*CONN
*I *357:A1 I *D sky130_fd_sc_hd__o21ai_1
*I *356:B I *D sky130_fd_sc_hd__nor3_1
*I *354:Y O *D sky130_fd_sc_hd__a211oi_1
*CAP
1 *357:A1 0
2 *356:B 0.00031618
3 *354:Y 8.21226e-05
4 *80:6 0.000398303
5 *356:B *355:A1 0.000223065
6 *356:B *356:A 2.59355e-05
7 *356:B *357:A2 1.42165e-05
8 *356:B *373:B1 0
9 *356:B *121:10 0
10 *356:B *121:74 5.33005e-05
11 *356:B *122:16 0.000181799
12 *356:B *122:22 2.16899e-05
13 *354:A2 *80:6 5.65955e-05
14 *43:65 *356:B 5.74121e-05
15 *43:95 *356:B 0.000221234
16 *43:95 *80:6 1.51489e-05
17 *60:20 *80:6 9.58181e-05
*RES
1 *354:Y *80:6 11.0679 
2 *80:6 *356:B 26.2464 
3 *80:6 *357:A1 9.3 
*END

*D_NET *81 0.00185708
*CONN
*I *356:C I *D sky130_fd_sc_hd__nor3_1
*I *357:A2 I *D sky130_fd_sc_hd__o21ai_1
*I *355:X O *D sky130_fd_sc_hd__o311a_1
*CAP
1 *356:C 0.000345128
2 *357:A2 0.000168421
3 *355:X 0
4 *81:4 0.000513549
5 *356:C *356:A 0.000325045
6 *356:C *357:B1 0.000144001
7 *356:C *358:B 2.42122e-05
8 *356:C *121:74 7.57312e-05
9 *356:C *122:16 0
10 *357:A2 *355:A1 2.61189e-05
11 *357:A2 *357:B1 5.66283e-05
12 *357:A2 *358:B 9.97164e-05
13 *357:A2 *369:B1_N 5.49544e-05
14 *356:B *357:A2 1.42165e-05
15 *60:20 *357:A2 9.35794e-06
*RES
1 *355:X *81:4 9.3 
2 *81:4 *357:A2 21.8 
3 *81:4 *356:C 24.9786 
*END

*D_NET *82 0.00357291
*CONN
*I *358:A_N I *D sky130_fd_sc_hd__and2b_1
*I *371:A I *D sky130_fd_sc_hd__nor2_1
*I *377:A1 I *D sky130_fd_sc_hd__o31a_1
*I *356:Y O *D sky130_fd_sc_hd__nor3_1
*CAP
1 *358:A_N 0.00020759
2 *371:A 0.000429374
3 *377:A1 4.56728e-05
4 *356:Y 9.26605e-05
5 *82:14 0.000692217
6 *82:6 0.00051742
7 *358:A_N *352:C1 0.000138607
8 *358:A_N *356:A 0.000261086
9 *358:A_N *357:B1 0.000172726
10 *358:A_N *363:B1 0.000175975
11 *358:A_N *95:12 4.8439e-05
12 *358:A_N *121:74 8.25843e-06
13 *358:A_N *122:16 0
14 *371:A *371:B 7.25873e-06
15 *371:A *372:A 0.000123932
16 *371:A *372:B 0.000227688
17 *371:A *375:A2 1.13883e-05
18 *371:A *377:A2 0.000101915
19 *371:A *377:B1 1.90111e-05
20 *377:A1 *371:B 1.92513e-05
21 *82:6 *356:A 0.000143375
22 *82:14 *368:A 3.51554e-05
23 *82:14 *377:B1 2.51343e-06
24 *82:14 *382:A 8.1401e-05
25 *82:14 *91:6 9.99644e-06
26 *82:14 *122:16 0
*RES
1 *356:Y *82:6 10.6571 
2 *82:6 *82:14 12.5 
3 *82:14 *377:A1 10.3357 
4 *82:14 *371:A 26.3714 
5 *82:6 *358:A_N 24.5321 
*END

*D_NET *83 0.00194582
*CONN
*I *369:B1_N I *D sky130_fd_sc_hd__a21bo_1
*I *358:B I *D sky130_fd_sc_hd__and2b_1
*I *357:Y O *D sky130_fd_sc_hd__o21ai_1
*CAP
1 *369:B1_N 0.000373572
2 *358:B 0.000297344
3 *357:Y 0
4 *83:4 0.000670916
5 *358:B *355:A1 0.000125005
6 *369:B1_N *352:C1 9.96412e-05
7 *369:B1_N *355:A1 0
8 *369:B1_N *357:B1 0.000129575
9 *369:B1_N *134:45 5.49489e-05
10 *356:C *358:B 2.42122e-05
11 *357:A2 *358:B 9.97164e-05
12 *357:A2 *369:B1_N 5.49544e-05
13 *60:20 *369:B1_N 1.59373e-05
*RES
1 *357:Y *83:4 9.3 
2 *83:4 *358:B 23.3536 
3 *83:4 *369:B1_N 25.7821 
*END

*D_NET *84 0.000199627
*CONN
*I *360:A I *D sky130_fd_sc_hd__xor2_1
*I *358:X O *D sky130_fd_sc_hd__and2b_1
*CAP
1 *360:A 9.98137e-05
2 *358:X 9.98137e-05
*RES
1 *358:X *360:A 20.3857 
*END

*D_NET *85 0.00146064
*CONN
*I *360:B I *D sky130_fd_sc_hd__xor2_1
*I *359:X O *D sky130_fd_sc_hd__a32o_1
*CAP
1 *360:B 0.000571983
2 *359:X 0.000571983
3 *360:B *363:A2 5.06672e-05
4 *360:B *390:CLK 0.000209414
5 *353:B1 *360:B 5.65955e-05
6 *370:A2 *360:B 0
*RES
1 *359:X *360:B 36.9393 
*END

*D_NET *86 0.00130478
*CONN
*I *363:A2 I *D sky130_fd_sc_hd__a21o_1
*I *360:X O *D sky130_fd_sc_hd__xor2_1
*CAP
1 *363:A2 0.000357195
2 *360:X 0.000357195
3 *363:A2 *363:B1 8.16102e-05
4 *363:A2 *390:CLK 8.17745e-05
5 *363:A2 *390:D 0.0001636
6 *363:A2 *121:74 0.000199283
7 *360:B *363:A2 5.06672e-05
8 *363:A1 *363:A2 1.34548e-05
*RES
1 *360:X *363:A2 35.725 
*END

*D_NET *87 0.000330261
*CONN
*I *362:B1 I *D sky130_fd_sc_hd__o211a_1
*I *361:X O *D sky130_fd_sc_hd__a21o_1
*CAP
1 *362:B1 4.57344e-05
2 *361:X 4.57344e-05
3 *362:B1 *362:A1 0.000152979
4 *362:B1 *362:A2 1.00733e-05
5 *362:B1 *135:17 7.57394e-05
*RES
1 *361:X *362:B1 20.3857 
*END

*D_NET *88 0.00128225
*CONN
*I *363:B1 I *D sky130_fd_sc_hd__a21o_1
*I *362:X O *D sky130_fd_sc_hd__o211a_1
*CAP
1 *363:B1 0.000302141
2 *362:X 0.000302141
3 *363:B1 *95:12 0.00017426
4 *363:B1 *121:74 0.000146138
5 *358:A_N *363:B1 0.000175975
6 *363:A1 *363:B1 9.99853e-05
7 *363:A2 *363:B1 8.16102e-05
*RES
1 *362:X *363:B1 35.3321 
*END

*D_NET *89 0.00183653
*CONN
*I *365:B I *D sky130_fd_sc_hd__xnor2_1
*I *380:B1 I *D sky130_fd_sc_hd__a21o_1
*I *364:X O *D sky130_fd_sc_hd__o31a_1
*CAP
1 *365:B 0.00011467
2 *380:B1 0
3 *364:X 0.000319097
4 *89:10 0.000433767
5 *365:B *365:A 2.85234e-05
6 *365:B *119:23 7.97678e-05
7 *89:10 *355:A2 1.32293e-05
8 *89:10 *117:54 4.11572e-05
9 *89:10 *118:8 7.74135e-05
10 *89:10 *121:10 3.17203e-05
11 *89:10 *121:12 1.34741e-05
12 *380:A2 *365:B 3.4867e-05
13 *380:A2 *89:10 0.000344988
14 *381:B *365:B 3.2537e-05
15 *401:A *89:10 0.000126416
16 *402:A *365:B 0.000144901
*RES
1 *364:X *89:10 21.2464 
2 *89:10 *380:B1 13.8 
3 *89:10 *365:B 16.8893 
*END

*D_NET *90 0.00170772
*CONN
*I *367:B I *D sky130_fd_sc_hd__or2_1
*I *366:B I *D sky130_fd_sc_hd__nand2_1
*I *365:Y O *D sky130_fd_sc_hd__xnor2_1
*CAP
1 *367:B 0.000193144
2 *366:B 8.96533e-05
3 *365:Y 0.000291296
4 *90:6 0.000574093
5 *366:B *374:B1 7.6997e-05
6 *366:B *122:16 8.89326e-06
7 *366:B *136:14 2.4741e-05
8 *367:B *367:A 5.35532e-05
9 *367:B *374:A1 6.03388e-05
10 *90:6 *374:A1 0.000220298
11 *90:6 *119:8 1.74502e-05
12 *402:A *90:6 9.72675e-05
*RES
1 *365:Y *90:6 13.1214 
2 *90:6 *366:B 20.2464 
3 *90:6 *367:B 12.7643 
*END

*D_NET *91 0.00188646
*CONN
*I *377:B1 I *D sky130_fd_sc_hd__o31a_1
*I *368:A I *D sky130_fd_sc_hd__nand2_1
*I *366:Y O *D sky130_fd_sc_hd__nand2_1
*CAP
1 *377:B1 9.20704e-05
2 *368:A 0.000259216
3 *366:Y 0.000138746
4 *91:6 0.000490033
5 *368:A *368:B 1.2294e-05
6 *368:A *375:B1 5.33005e-05
7 *368:A *377:A2 0.000174682
8 *368:A *382:A 0.000355655
9 *368:A *93:10 0.000113924
10 *368:A *95:12 3.07555e-05
11 *377:B1 *371:B 3.93346e-05
12 *91:6 *366:A 3.08664e-05
13 *91:6 *382:A 2.89114e-05
14 *371:A *377:B1 1.90111e-05
15 *82:14 *368:A 3.51554e-05
16 *82:14 *377:B1 2.51343e-06
17 *82:14 *91:6 9.99644e-06
*RES
1 *366:Y *91:6 11.4786 
2 *91:6 *368:A 24.8536 
3 *91:6 *377:B1 11.0857 
*END

*D_NET *92 0.000396774
*CONN
*I *368:B I *D sky130_fd_sc_hd__nand2_1
*I *367:X O *D sky130_fd_sc_hd__or2_1
*CAP
1 *368:B 0.000124213
2 *367:X 0.000124213
3 *368:B *375:B1 9.84673e-05
4 *368:B *93:10 3.75868e-05
5 *368:A *368:B 1.2294e-05
*RES
1 *367:X *368:B 30.1893 
*END

*D_NET *93 0.00117274
*CONN
*I *372:A I *D sky130_fd_sc_hd__xnor2_1
*I *377:A2 I *D sky130_fd_sc_hd__o31a_1
*I *368:Y O *D sky130_fd_sc_hd__nand2_1
*CAP
1 *372:A 0.000118218
2 *377:A2 6.30336e-05
3 *368:Y 0.000102447
4 *93:10 0.000283698
5 *93:10 *375:B1 5.33005e-05
6 *368:A *377:A2 0.000174682
7 *368:A *93:10 0.000113924
8 *368:B *93:10 3.75868e-05
9 *371:A *372:A 0.000123932
10 *371:A *377:A2 0.000101915
*RES
1 *368:Y *93:10 15.9786 
2 *93:10 *377:A2 16.05 
3 *93:10 *372:A 16.5143 
*END

*D_NET *94 0.000329356
*CONN
*I *370:B1 I *D sky130_fd_sc_hd__a31oi_1
*I *369:X O *D sky130_fd_sc_hd__a21bo_1
*CAP
1 *370:B1 5.37551e-05
2 *369:X 5.37551e-05
3 *370:B1 *116:12 0.000148607
4 *370:A2 *370:B1 9.71202e-06
5 *63:36 *370:B1 6.35274e-05
*RES
1 *369:X *370:B1 29.5464 
*END

*D_NET *95 0.00312815
*CONN
*I *371:B I *D sky130_fd_sc_hd__nor2_1
*I *377:A3 I *D sky130_fd_sc_hd__o31a_1
*I *370:Y O *D sky130_fd_sc_hd__a31oi_1
*CAP
1 *371:B 0.000403382
2 *377:A3 0
3 *370:Y 0.000595687
4 *95:12 0.00099907
5 *371:B *372:B 9.83442e-05
6 *371:B *375:A2 3.08664e-05
7 *371:B *121:74 0
8 *95:12 *352:C1 0.000591308
9 *95:12 *116:12 5.59944e-05
10 *95:12 *116:14 2.59355e-05
11 *95:12 *116:40 8.25843e-06
12 *358:A_N *95:12 4.8439e-05
13 *363:B1 *95:12 0.00017426
14 *368:A *95:12 3.07555e-05
15 *371:A *371:B 7.25873e-06
16 *377:A1 *371:B 1.92513e-05
17 *377:B1 *371:B 3.93346e-05
*RES
1 *370:Y *95:12 31.8179 
2 *95:12 *377:A3 9.3 
3 *95:12 *371:B 25.8893 
*END

*D_NET *96 0.000455475
*CONN
*I *372:B I *D sky130_fd_sc_hd__xnor2_1
*I *371:Y O *D sky130_fd_sc_hd__nor2_1
*CAP
1 *372:B 5.67527e-05
2 *371:Y 5.67527e-05
3 *372:B *375:A2 1.59373e-05
4 *371:A *372:B 0.000227688
5 *371:B *372:B 9.83442e-05
*RES
1 *371:Y *372:B 20.7786 
*END

*D_NET *97 0.0004692
*CONN
*I *375:A2 I *D sky130_fd_sc_hd__a21o_1
*I *372:Y O *D sky130_fd_sc_hd__xnor2_1
*CAP
1 *375:A2 0.000205504
2 *372:Y 0.000205504
3 *371:A *375:A2 1.13883e-05
4 *371:B *375:A2 3.08664e-05
5 *372:B *375:A2 1.59373e-05
*RES
1 *372:Y *375:A2 30.6 
*END

*D_NET *98 0.000360165
*CONN
*I *374:B1 I *D sky130_fd_sc_hd__o211a_1
*I *373:X O *D sky130_fd_sc_hd__a21o_1
*CAP
1 *374:B1 6.76237e-05
2 *373:X 6.76237e-05
3 *374:B1 *136:14 0.000147921
4 *366:B *374:B1 7.6997e-05
*RES
1 *373:X *374:B1 29.5464 
*END

*D_NET *99 0.00114599
*CONN
*I *375:B1 I *D sky130_fd_sc_hd__a21o_1
*I *374:X O *D sky130_fd_sc_hd__o211a_1
*CAP
1 *375:B1 0.000406724
2 *374:X 0.000406724
3 *375:B1 *382:A 0.000101227
4 *375:B1 *391:D 2.62426e-05
5 *368:A *375:B1 5.33005e-05
6 *368:B *375:B1 9.84673e-05
7 *93:10 *375:B1 5.33005e-05
*RES
1 *374:X *375:B1 34.8321 
*END

*D_NET *100 0.00206169
*CONN
*I *379:B I *D sky130_fd_sc_hd__nor2_1
*I *384:A2 I *D sky130_fd_sc_hd__o221a_1
*I *376:X O *D sky130_fd_sc_hd__and2_1
*CAP
1 *379:B 0.000255345
2 *384:A2 0.000330923
3 *376:X 0.000143612
4 *100:10 0.00072988
5 *379:B *378:A 0.000240274
6 *379:B *378:B 5.03945e-05
7 *379:B *383:A 7.11068e-05
8 *384:A2 *309:A0 2.32275e-05
9 *384:A2 *382:A 6.12751e-05
10 *100:10 *378:B 3.69047e-06
11 *100:10 *383:A 7.74135e-05
12 *384:B1 *384:A2 7.45474e-05
*RES
1 *376:X *100:10 15.7821 
2 *100:10 *384:A2 18.3536 
3 *100:10 *379:B 19.4607 
*END

*D_NET *101 0.00242641
*CONN
*I *382:A I *D sky130_fd_sc_hd__xnor2_1
*I *377:X O *D sky130_fd_sc_hd__o31a_1
*CAP
1 *382:A 0.000683205
2 *377:X 0.000683205
3 *382:A *383:A 0
4 *382:A *122:10 0
5 *382:A *122:136 0.000233198
6 *368:A *382:A 0.000355655
7 *375:B1 *382:A 0.000101227
8 *384:A2 *382:A 6.12751e-05
9 *384:B1 *382:A 1.32056e-05
10 *384:C1 *382:A 0.000185124
11 *82:14 *382:A 8.1401e-05
12 *91:6 *382:A 2.89114e-05
*RES
1 *377:X *382:A 43.1179 
*END

*D_NET *102 0.000477185
*CONN
*I *385:D I *D sky130_fd_sc_hd__dfxtp_1
*I *310:X O *D sky130_fd_sc_hd__clkbuf_1
*CAP
1 *385:D 0.0001214
2 *310:X 0.0001214
3 *385:D *414:A 8.1932e-05
4 *385:D *112:34 9.57557e-05
5 *385:D *138:10 5.66971e-05
*RES
1 *310:X *385:D 30.5509 
*END

*D_NET *103 0.00141547
*CONN
*I *386:D I *D sky130_fd_sc_hd__dfxtp_1
*I *322:X O *D sky130_fd_sc_hd__o211a_1
*CAP
1 *386:D 0.000524948
2 *322:X 0.000524948
3 *386:D *112:34 6.23278e-05
4 *318:A_N *386:D 0.000125359
5 *318:B *386:D 6.8646e-06
6 *322:B1 *386:D 9.4749e-05
7 *41:10 *386:D 7.62718e-05
*RES
1 *322:X *386:D 37.0286 
*END

*D_NET *104 0.000333251
*CONN
*I *387:D I *D sky130_fd_sc_hd__dfxtp_1
*I *331:X O *D sky130_fd_sc_hd__o211a_1
*CAP
1 *387:D 0.000166626
2 *331:X 0.000166626
*RES
1 *331:X *387:D 21.0509 
*END

*D_NET *105 0.000617682
*CONN
*I *388:D I *D sky130_fd_sc_hd__dfxtp_1
*I *344:X O *D sky130_fd_sc_hd__a21o_1
*CAP
1 *388:D 0.000308841
2 *344:X 0.000308841
*RES
1 *344:X *388:D 32.3902 
*END

*D_NET *106 0.00110563
*CONN
*I *389:D I *D sky130_fd_sc_hd__dfxtp_1
*I *353:X O *D sky130_fd_sc_hd__a21o_1
*CAP
1 *389:D 0.000228819
2 *353:X 0.000228819
3 *389:D *342:B1 0.000315206
4 *389:D *111:16 0.000185118
5 *63:28 *389:D 0.000147672
*RES
1 *353:X *389:D 33.3187 
*END

*D_NET *107 0.000536608
*CONN
*I *390:D I *D sky130_fd_sc_hd__dfxtp_1
*I *363:X O *D sky130_fd_sc_hd__a21o_1
*CAP
1 *390:D 0.000153544
2 *363:X 0.000153544
3 *390:D *390:CLK 6.59209e-05
4 *363:A2 *390:D 0.0001636
*RES
1 *363:X *390:D 30.4259 
*END

*D_NET *108 0.0010042
*CONN
*I *391:D I *D sky130_fd_sc_hd__dfxtp_1
*I *375:X O *D sky130_fd_sc_hd__a21o_1
*CAP
1 *391:D 0.000473935
2 *375:X 0.000473935
3 *391:D *112:8 2.53195e-05
4 *375:A1 *391:D 4.76637e-06
5 *375:B1 *391:D 2.62426e-05
*RES
1 *375:X *391:D 34.533 
*END

*D_NET *109 0.000386411
*CONN
*I *392:D I *D sky130_fd_sc_hd__dfxtp_1
*I *384:X O *D sky130_fd_sc_hd__o221a_1
*CAP
1 *392:D 2.08538e-05
2 *384:X 2.08538e-05
3 *392:D *309:A0 0.000172352
4 *384:A1 *392:D 0.000172352
*RES
1 *384:X *392:D 20.2295 
*END

*D_NET *110 0.00420058
*CONN
*I *395:A I *D sky130_fd_sc_hd__clkbuf_16
*I *394:A I *D sky130_fd_sc_hd__clkbuf_16
*I *393:X O *D sky130_fd_sc_hd__clkbuf_16
*CAP
1 *395:A 0.000633431
2 *394:A 0.000539217
3 *393:X 0
4 *110:6 0.00117265
5 *394:A *138:39 0.000128161
6 *395:A *321:B1 0.000121248
7 *395:A *112:8 5.26719e-05
8 *395:A *138:33 0.000310112
9 *395:A *138:35 0.000267722
10 *395:A *138:39 2.31791e-05
11 *307:B1 *395:A 7.2344e-05
12 *310:A *395:A 5.49995e-05
13 *335:A1 *394:A 5.49544e-05
14 *335:A2 *394:A 5.65955e-05
15 *36:38 *394:A 0.000193255
16 *36:44 *394:A 0.000520045
17 *37:40 *395:A 0
*RES
1 *393:X *110:6 13.8 
2 *110:6 *394:A 25.3893 
3 *110:6 *395:A 26.5321 
*END

*D_NET *111 0.00668495
*CONN
*I *387:CLK I *D sky130_fd_sc_hd__dfxtp_1
*I *388:CLK I *D sky130_fd_sc_hd__dfxtp_1
*I *390:CLK I *D sky130_fd_sc_hd__dfxtp_1
*I *389:CLK I *D sky130_fd_sc_hd__dfxtp_1
*I *394:X O *D sky130_fd_sc_hd__clkbuf_16
*CAP
1 *387:CLK 0.000554475
2 *388:CLK 0
3 *390:CLK 0.000559717
4 *389:CLK 0.000180408
5 *394:X 0
6 *111:16 0.00120976
7 *111:12 0.000623033
8 *111:4 0.000707873
9 *387:CLK *339:A 0.000116805
10 *389:CLK *342:B1 5.49544e-05
11 *390:CLK *342:B1 0
12 *111:16 *337:A 0.000125832
13 *111:16 *343:A1 0.000266982
14 *111:16 *343:C1 0.000219366
15 *111:16 *133:14 4.01923e-05
16 *329:A2 *387:CLK 3.51971e-05
17 *337:B *111:16 9.82775e-05
18 *337:C *111:16 3.25264e-05
19 *338:B *111:12 5.7119e-05
20 *341:B *387:CLK 0.000185403
21 *341:B *111:12 0.000117333
22 *343:B1 *111:16 5.49544e-05
23 *348:B1 *111:12 0.000122259
24 *353:A1 *111:16 0.000128086
25 *353:A2 *389:CLK 3.5848e-05
26 *353:B1 *111:16 5.49544e-05
27 *359:A3 *389:CLK 2.50593e-05
28 *359:A3 *390:CLK 7.57318e-05
29 *359:A3 *111:16 2.12005e-05
30 *360:B *390:CLK 0.000209414
31 *363:A2 *390:CLK 8.17745e-05
32 *389:D *111:16 0.000185118
33 *390:D *390:CLK 6.59209e-05
34 *393:A *387:CLK 0.000172729
35 *43:44 *390:CLK 7.94535e-05
36 *52:10 *387:CLK 0
37 *52:20 *387:CLK 0.000130547
38 *63:28 *389:CLK 5.6647e-05
*RES
1 *394:X *111:4 9.3 
2 *111:4 *111:12 12 
3 *111:12 *111:16 16.5357 
4 *111:16 *389:CLK 16.8893 
5 *111:16 *390:CLK 25.6393 
6 *111:12 *388:CLK 9.3 
7 *111:4 *387:CLK 30.5143 
*END

*D_NET *112 0.00394462
*CONN
*I *386:CLK I *D sky130_fd_sc_hd__dfxtp_1
*I *385:CLK I *D sky130_fd_sc_hd__dfxtp_1
*I *391:CLK I *D sky130_fd_sc_hd__dfxtp_1
*I *392:CLK I *D sky130_fd_sc_hd__dfxtp_1
*I *395:X O *D sky130_fd_sc_hd__clkbuf_16
*CAP
1 *386:CLK 3.68251e-05
2 *385:CLK 0
3 *391:CLK 0
4 *392:CLK 0.000180966
5 *395:X 0
6 *112:34 0.000334419
7 *112:8 0.00133669
8 *112:4 0.00145331
9 *112:8 *420:A 5.49995e-05
10 *112:8 *138:10 4.82947e-05
11 *112:34 *138:10 0.000159072
12 *310:A *112:8 0.000103968
13 *385:D *112:34 9.57557e-05
14 *386:D *112:34 6.23278e-05
15 *391:D *112:8 2.53195e-05
16 *395:A *112:8 5.26719e-05
*RES
1 *395:X *112:4 9.3 
2 *112:4 *112:8 14 
3 *112:8 *392:CLK 21.4964 
4 *112:8 *391:CLK 9.3 
5 *112:4 *112:34 14.0536 
6 *112:34 *385:CLK 9.3 
7 *112:34 *386:CLK 9.83571 
*END

*D_NET *113 0.00221383
*CONN
*I *311:A I *D sky130_fd_sc_hd__or2b_1
*I *307:A1 I *D sky130_fd_sc_hd__o21a_1
*I *308:A I *D sky130_fd_sc_hd__nand2_1
*I *396:X O *D sky130_fd_sc_hd__buf_1
*CAP
1 *311:A 4.55984e-05
2 *307:A1 0
3 *308:A 0.000111777
4 *396:X 0.00050817
5 *113:16 0.000168687
6 *113:12 0.000610678
7 *308:A *307:A2 5.33005e-05
8 *308:A *308:B 3.22063e-05
9 *308:A *138:20 0.000267731
10 *308:A *138:77 0
11 *113:12 *114:12 0
12 *113:12 *138:10 0.000174667
13 *113:12 *138:20 7.26502e-05
14 *113:16 *307:A2 1.24368e-05
15 *113:16 *311:B_N 4.08637e-05
16 result[0] *113:12 1.15615e-06
17 *307:B1 *308:A 5.65955e-05
18 *309:A1 *308:A 5.12608e-05
19 *396:A *113:12 6.05161e-06
*RES
1 *396:X *113:12 26.6571 
2 *113:12 *113:16 1.26786 
3 *113:16 *308:A 12.7286 
4 *113:16 *307:A1 9.3 
5 *113:12 *311:A 9.83571 
*END

*D_NET *114 0.00553198
*CONN
*I *322:A1 I *D sky130_fd_sc_hd__o211a_1
*I *321:A2 I *D sky130_fd_sc_hd__a211o_1
*I *332:B I *D sky130_fd_sc_hd__or3_2
*I *324:A2 I *D sky130_fd_sc_hd__o21a_1
*I *314:B I *D sky130_fd_sc_hd__and3_1
*I *315:B1 I *D sky130_fd_sc_hd__a21oi_1
*I *397:X O *D sky130_fd_sc_hd__dlymetal6s2s_1
*CAP
1 *322:A1 0
2 *321:A2 2.50714e-05
3 *332:B 0
4 *324:A2 0
5 *314:B 0.000152709
6 *315:B1 1.63809e-05
7 *397:X 0.000606379
8 *114:45 0.000435376
9 *114:39 0.00061318
10 *114:20 0.000441968
11 *114:16 0.000218404
12 *114:12 0.000704637
13 *314:B *314:A 1.07719e-05
14 *314:B *122:81 0.000294122
15 *315:B1 *321:B1 5.49489e-05
16 *321:A2 *330:A1 3.41931e-05
17 *321:A2 *121:91 1.8461e-05
18 *114:16 *330:A1 9.86486e-06
19 *114:20 *330:A1 5.01649e-05
20 *114:39 *330:A1 0.000430749
21 *114:39 *138:20 0
22 *114:45 *324:A1 0.000181803
23 *114:45 *332:A 5.25368e-05
24 *316:A1 *114:39 5.48781e-05
25 *318:B *114:12 0.000166416
26 *319:B *114:12 1.757e-05
27 *320:A *114:12 3.92866e-05
28 *320:A *114:16 1.82328e-05
29 *322:A2 *114:12 1.00332e-05
30 *322:B1 *114:16 5.61463e-05
31 *322:C1 *114:16 5.49995e-05
32 *325:B *114:45 5.33005e-05
33 *37:16 *321:A2 2.02933e-05
34 *37:16 *114:16 0.000223661
35 *41:10 *114:12 5.04589e-05
36 *43:8 *314:B 6.23785e-05
37 *43:10 *314:B 5.84075e-05
38 *43:12 *314:B 2.84494e-05
39 *44:10 *114:39 7.54868e-05
40 *45:6 *315:B1 1.83053e-05
41 *60:12 *114:39 3.12359e-05
42 *60:12 *114:45 0.000140714
43 *113:12 *114:12 0
*RES
1 *397:X *114:12 29.4964 
2 *114:12 *114:16 3.01786 
3 *114:16 *114:20 6.14286 
4 *114:20 *315:B1 14.3357 
5 *114:20 *114:39 11.8929 
6 *114:39 *114:45 4.78571 
7 *114:45 *314:B 22.6036 
8 *114:45 *324:A2 9.3 
9 *114:39 *332:B 9.3 
10 *114:16 *321:A2 10.2286 
11 *114:12 *322:A1 9.3 
*END

*D_NET *115 0.00395464
*CONN
*I *332:C I *D sky130_fd_sc_hd__or3_2
*I *331:A1 I *D sky130_fd_sc_hd__o211a_1
*I *325:A I *D sky130_fd_sc_hd__xnor2_1
*I *330:A2 I *D sky130_fd_sc_hd__a211o_1
*I *398:X O *D sky130_fd_sc_hd__buf_1
*CAP
1 *332:C 0.00026247
2 *331:A1 0
3 *325:A 0.000370349
4 *330:A2 0
5 *398:X 0.000746701
6 *115:38 0.00026247
7 *115:16 0.000506869
8 *115:10 0.000883221
9 *325:A *330:A1 5.49544e-05
10 *325:A *419:A 7.44486e-05
11 *332:C *324:A1 0
12 *115:16 *329:B1 9.15842e-06
13 *115:16 *419:A 0.000143505
14 *330:C1 *325:A 0.000163249
15 *331:A2 *115:10 0.000117196
16 *331:A2 *115:16 1.02504e-05
17 *331:B1 *115:16 8.36843e-05
18 *331:C1 *325:A 5.65955e-05
19 *331:C1 *115:16 4.74514e-05
20 *393:A *115:10 4.25716e-05
21 *393:A *115:16 7.41092e-05
22 *43:44 *325:A 1.24368e-05
23 *46:16 *115:10 2.92634e-05
24 *60:12 *332:C 3.69047e-06
*RES
1 *398:X *115:10 23.3714 
2 *115:10 *115:16 8.71429 
3 *115:16 *330:A2 9.3 
4 *115:16 *325:A 16.4786 
5 *115:10 *115:38 4.5 
6 *115:38 *331:A1 9.3 
7 *115:38 *332:C 13.1571 
*END

*D_NET *116 0.00784304
*CONN
*I *334:A_N I *D sky130_fd_sc_hd__nand3b_1
*I *333:B1_N I *D sky130_fd_sc_hd__a21bo_1
*I *343:A1 I *D sky130_fd_sc_hd__o211a_1
*I *342:A1 I *D sky130_fd_sc_hd__a21o_1
*I *355:A1 I *D sky130_fd_sc_hd__o311a_1
*I *345:A1 I *D sky130_fd_sc_hd__o21a_1
*I *399:X O *D sky130_fd_sc_hd__dlymetal6s2s_1
*CAP
1 *334:A_N 0.000140054
2 *333:B1_N 0
3 *343:A1 0.000326652
4 *342:A1 0
5 *355:A1 0.00021483
6 *345:A1 3.41651e-05
7 *399:X 0.000458981
8 *116:72 0.000179214
9 *116:49 0.000571679
10 *116:40 0.00084451
11 *116:14 0.000515426
12 *116:12 0.00136405
13 *334:A_N *343:C1 3.90513e-05
14 *343:A1 *343:C1 3.11787e-05
15 *343:A1 *133:36 0.00015023
16 *116:12 *352:C1 4.55219e-05
17 *116:72 *343:C1 3.48235e-05
18 *333:A1 *334:A_N 0.000171413
19 *334:B *334:A_N 0.000367137
20 *343:B1 *343:A1 1.39782e-05
21 *345:A2 *355:A1 6.30196e-05
22 *349:A *116:40 0.000180877
23 *349:B *116:40 2.82942e-05
24 *356:B *355:A1 0.000223065
25 *357:A2 *355:A1 2.61189e-05
26 *358:B *355:A1 0.000125005
27 *369:B1_N *355:A1 0
28 *370:A3 *116:40 2.15387e-05
29 *370:B1 *116:12 0.000148607
30 *399:A *116:12 0.000144773
31 *36:44 *334:A_N 1.69115e-05
32 *36:44 *343:A1 0.000102346
33 *36:44 *116:72 2.56694e-05
34 *43:95 *355:A1 2.64602e-05
35 *60:16 *334:A_N 0.000112072
36 *60:20 *334:A_N 4.38349e-05
37 *63:36 *116:12 2.73164e-05
38 *73:21 *116:12 0.000195718
39 *75:18 *116:40 0.000120732
40 *75:18 *116:49 0.000301678
41 *75:20 *116:40 4.89399e-05
42 *95:12 *116:12 5.59944e-05
43 *95:12 *116:14 2.59355e-05
44 *95:12 *116:40 8.25843e-06
45 *111:16 *343:A1 0.000266982
*RES
1 *399:X *116:12 28.3 
2 *116:12 *116:14 4.23214 
3 *116:14 *345:A1 9.83571 
4 *116:14 *355:A1 23.9429 
5 *116:12 *116:40 8.66071 
6 *116:40 *342:A1 9.3 
7 *116:40 *116:49 7.5 
8 *116:49 *343:A1 29.6393 
9 *116:49 *116:72 1.03571 
10 *116:72 *333:B1_N 13.8 
11 *116:72 *334:A_N 19.0857 
*END

*D_NET *117 0.00340343
*CONN
*I *355:A2 I *D sky130_fd_sc_hd__o311a_1
*I *364:A1 I *D sky130_fd_sc_hd__o31a_1
*I *354:A1 I *D sky130_fd_sc_hd__a211oi_1
*I *352:A1 I *D sky130_fd_sc_hd__o211a_1
*I *351:A1 I *D sky130_fd_sc_hd__a21o_1
*I *346:A I *D sky130_fd_sc_hd__xnor2_1
*I *400:X O *D sky130_fd_sc_hd__clkbuf_2
*CAP
1 *355:A2 0.000271255
2 *364:A1 0
3 *354:A1 0.000116786
4 *352:A1 0.000226196
5 *351:A1 0
6 *346:A 0.000123054
7 *400:X 0
8 *117:54 0.000406489
9 *117:25 0.000290516
10 *117:10 0.000374167
11 *117:8 0.00036283
12 *117:6 0.000194484
13 *352:A1 *351:A2 6.75989e-05
14 *352:A1 *134:32 1.02301e-05
15 *352:A1 *134:45 2.84109e-05
16 *355:A2 *355:C1 6.47568e-05
17 *117:25 *351:A2 1.84776e-05
18 *346:B *346:A 7.57318e-05
19 *346:B *117:10 9.14222e-05
20 *352:B1 *352:A1 7.83179e-05
21 *354:A2 *354:A1 5.52302e-05
22 *364:A3 *355:A2 5.74499e-06
23 *364:A3 *117:8 2.61408e-05
24 *364:A3 *117:54 9.27921e-06
25 *364:B1 *355:A2 5.65955e-05
26 *400:A *117:8 0
27 *400:A *117:10 0
28 *401:A *117:54 0.000136967
29 *43:80 *355:A2 5.50052e-05
30 *43:95 *355:A2 5.49995e-05
31 *72:19 *117:8 4.58192e-05
32 *72:19 *117:10 0.000102542
33 *89:10 *355:A2 1.32293e-05
34 *89:10 *117:54 4.11572e-05
*RES
1 *400:X *117:6 13.8 
2 *117:6 *117:8 1.64286 
3 *117:8 *117:10 4.67857 
4 *117:10 *346:A 16.2821 
5 *117:10 *117:25 5.44643 
6 *117:25 *351:A1 9.3 
7 *117:25 *352:A1 13.55 
8 *117:8 *354:A1 15.1571 
9 *117:6 *117:54 7.39286 
10 *117:54 *364:A1 9.3 
11 *117:54 *355:A2 13.9786 
*END

*D_NET *118 0.00294612
*CONN
*I *362:A1 I *D sky130_fd_sc_hd__o211a_1
*I *361:A1 I *D sky130_fd_sc_hd__a21o_1
*I *355:C1 I *D sky130_fd_sc_hd__o311a_1
*I *364:A2 I *D sky130_fd_sc_hd__o31a_1
*I *354:C1 I *D sky130_fd_sc_hd__a211oi_1
*I *401:X O *D sky130_fd_sc_hd__buf_1
*CAP
1 *362:A1 0.000317395
2 *361:A1 0
3 *355:C1 0.000111269
4 *364:A2 0
5 *354:C1 0.00010033
6 *401:X 0
7 *118:37 0.000449476
8 *118:21 0.000111269
9 *118:8 0.000168405
10 *118:4 0.000200157
11 *354:C1 *121:12 0.000194442
12 *362:A1 *361:B1 9.75173e-05
13 *362:A1 *362:A2 1.00733e-05
14 *362:A1 *135:17 4.08556e-05
15 *362:A1 *135:28 1.30607e-05
16 *118:8 *121:12 0.000146853
17 *118:37 *361:B1 0.000141734
18 *118:37 *135:8 1.21258e-05
19 *354:A2 *354:C1 0.000141131
20 *354:B1 *354:C1 9.58181e-05
21 *355:A2 *355:C1 6.47568e-05
22 *362:B1 *362:A1 0.000152979
23 *364:A3 *354:C1 0.000125371
24 *364:A3 *355:C1 2.59355e-05
25 *364:B1 *355:C1 5.65955e-05
26 *401:A *354:C1 2.69483e-05
27 *401:A *118:8 3.07737e-05
28 *72:19 *354:C1 3.34295e-05
29 *89:10 *118:8 7.74135e-05
*RES
1 *401:X *118:4 9.3 
2 *118:4 *118:8 6.44643 
3 *118:8 *354:C1 17.7107 
4 *118:8 *118:21 4.5 
5 *118:21 *364:A2 9.3 
6 *118:21 *355:C1 11.4964 
7 *118:4 *118:37 1.76786 
8 *118:37 *361:A1 9.3 
9 *118:37 *362:A1 13.8536 
*END

*D_NET *119 0.00199819
*CONN
*I *374:A1 I *D sky130_fd_sc_hd__o211a_1
*I *380:A1 I *D sky130_fd_sc_hd__a21o_1
*I *373:A1 I *D sky130_fd_sc_hd__a21o_1
*I *365:A I *D sky130_fd_sc_hd__xnor2_1
*I *402:X O *D sky130_fd_sc_hd__buf_1
*CAP
1 *374:A1 0.000123953
2 *380:A1 0
3 *373:A1 4.95492e-05
4 *365:A 0.00012854
5 *402:X 0
6 *119:23 0.000248615
7 *119:8 0.000433027
8 *119:4 0.000229374
9 *373:A1 *373:A2 3.08664e-05
10 *373:A1 *373:B1 0.000141734
11 *374:A1 *367:A 1.59373e-05
12 *374:A1 *374:A2 1.02132e-05
13 *374:A1 *136:36 3.04394e-05
14 *119:23 *122:16 0
15 *365:B *365:A 2.85234e-05
16 *365:B *119:23 7.97678e-05
17 *367:B *374:A1 6.03388e-05
18 *380:A2 *373:A1 4.17902e-05
19 *380:A2 *119:23 3.32723e-05
20 *402:A *365:A 2.83425e-05
21 *402:A *119:8 4.61606e-05
22 *90:6 *374:A1 0.000220298
23 *90:6 *119:8 1.74502e-05
*RES
1 *402:X *119:4 9.3 
2 *119:4 *119:8 2.39286 
3 *119:8 *365:A 11.4964 
4 *119:8 *119:23 12.1607 
5 *119:23 *373:A1 11.0857 
6 *119:23 *380:A1 9.3 
7 *119:4 *374:A1 12.6214 
*END

*D_NET *120 0.00184787
*CONN
*I *378:A I *D sky130_fd_sc_hd__nor2_1
*I *376:A I *D sky130_fd_sc_hd__and2_1
*I *403:X O *D sky130_fd_sc_hd__clkbuf_1
*CAP
1 *378:A 0.000230703
2 *376:A 0.000276205
3 *403:X 0.000107557
4 *120:6 0.000614465
5 *376:A *137:8 5.49544e-05
6 *379:A *378:A 2.84026e-05
7 *379:B *378:A 0.000240274
8 *381:A *376:A 4.07423e-05
9 *381:A *378:A 6.8445e-06
10 *381:A *120:6 3.40949e-05
11 *383:B *376:A 9.05458e-05
12 *30:10 *376:A 2.47319e-05
13 *30:10 *378:A 9.83442e-05
*RES
1 *403:X *120:6 11.0679 
2 *120:6 *376:A 24.1214 
3 *120:6 *378:A 14.3893 
*END

*D_NET *121 0.0141675
*CONN
*I *306:B I *D sky130_fd_sc_hd__or2_1
*I *330:A1 I *D sky130_fd_sc_hd__a211o_1
*I *321:A1 I *D sky130_fd_sc_hd__a211o_1
*I *312:B_N I *D sky130_fd_sc_hd__or2b_1
*I *373:B1 I *D sky130_fd_sc_hd__a21o_1
*I *361:B1 I *D sky130_fd_sc_hd__a21o_1
*I *351:B1 I *D sky130_fd_sc_hd__a21o_1
*I *342:B1 I *D sky130_fd_sc_hd__a21o_1
*I *404:X O *D sky130_fd_sc_hd__clkbuf_2
*CAP
1 *306:B 0
2 *330:A1 0.000572938
3 *321:A1 0
4 *312:B_N 0
5 *373:B1 0.000281372
6 *361:B1 7.14907e-05
7 *351:B1 0
8 *342:B1 0.00119399
9 *404:X 0.000109563
10 *121:91 0.00082485
11 *121:81 0.000389092
12 *121:74 0.00124714
13 *121:12 0.00160335
14 *121:10 0.000591432
15 *121:8 0.000391952
16 *121:6 0.00121952
17 *330:A1 *330:B1 1.00887e-05
18 *330:A1 *419:A 5.65955e-05
19 *342:B1 *343:C1 7.35447e-05
20 *342:B1 *347:A 5.49995e-05
21 *342:B1 *352:C1 3.67279e-06
22 *342:B1 *134:12 0.000226867
23 *361:B1 *361:A2 3.41517e-06
24 *361:B1 *135:8 5.20751e-05
25 *361:B1 *135:17 6.73452e-05
26 *373:B1 *366:A 0
27 *373:B1 *373:A2 3.28073e-05
28 *373:B1 *122:16 0
29 *121:12 *352:C1 2.76148e-05
30 *121:74 *356:A 3.74869e-05
31 *121:81 *312:A 3.05522e-05
32 *121:91 *305:A 0.000147725
33 *313:A *121:81 5.50052e-05
34 *320:A *330:A1 0.000201785
35 *320:A *121:91 2.99064e-05
36 *321:A2 *330:A1 3.41931e-05
37 *321:A2 *121:91 1.8461e-05
38 *322:A2 *330:A1 1.48252e-05
39 *322:C1 *330:A1 2.85234e-05
40 *325:A *330:A1 5.49544e-05
41 *331:A2 *330:A1 0
42 *331:C1 *330:A1 9.31254e-05
43 *345:A2 *121:12 0
44 *345:B1 *121:12 4.79842e-05
45 *346:B *342:B1 7.70015e-05
46 *346:B *121:12 6.93072e-05
47 *354:C1 *121:12 0.000194442
48 *355:A3 *121:12 0
49 *356:B *373:B1 0
50 *356:B *121:10 0
51 *356:B *121:74 5.33005e-05
52 *356:C *121:74 7.57312e-05
53 *358:A_N *121:74 8.25843e-06
54 *362:A1 *361:B1 9.75173e-05
55 *363:A1 *121:74 2.15245e-05
56 *363:A2 *121:74 0.000199283
57 *363:B1 *121:74 0.000146138
58 *371:B *121:74 0
59 *373:A1 *373:B1 0.000141734
60 *380:A2 *373:B1 0.000168698
61 *380:A2 *121:10 0.000124842
62 *389:CLK *342:B1 5.49544e-05
63 *389:D *342:B1 0.000315206
64 *390:CLK *342:B1 0
65 *36:15 *121:91 9.67754e-05
66 *36:17 *121:91 5.80494e-05
67 *36:21 *121:74 0
68 *36:21 *121:91 4.27842e-06
69 *36:96 *121:91 0.000362771
70 *37:16 *330:A1 8.91258e-06
71 *37:16 *121:91 0.000351346
72 *46:16 *330:A1 2.29031e-05
73 *60:12 *330:A1 0.000150081
74 *63:28 *342:B1 0.000219733
75 *72:19 *121:12 0.000124064
76 *73:8 *342:B1 4.7812e-05
77 *73:21 *342:B1 0.000138842
78 *74:8 *342:B1 0.000109185
79 *89:10 *121:10 3.17203e-05
80 *89:10 *121:12 1.34741e-05
81 *114:16 *330:A1 9.86486e-06
82 *114:20 *330:A1 5.01649e-05
83 *114:39 *330:A1 0.000430749
84 *118:8 *121:12 0.000146853
85 *118:37 *361:B1 0.000141734
*RES
1 *404:X *121:6 10.6571 
2 *121:6 *121:8 4.5 
3 *121:8 *121:10 2.55357 
4 *121:10 *121:12 9.53571 
5 *121:12 *342:B1 45.4071 
6 *121:12 *351:B1 13.8 
7 *121:10 *361:B1 16.4071 
8 *121:8 *373:B1 18.9607 
9 *121:6 *121:74 27.5714 
10 *121:74 *312:B_N 9.3 
11 *121:74 *121:81 2.58929 
12 *121:81 *121:91 16.8393 
13 *121:91 *321:A1 9.3 
14 *121:91 *330:A1 32.4429 
15 *121:81 *306:B 9.3 
*END

*D_NET *122 0.0190792
*CONN
*I *309:A0 I *D sky130_fd_sc_hd__mux2_1
*I *384:B2 I *D sky130_fd_sc_hd__o221a_1
*I *383:A I *D sky130_fd_sc_hd__nand2_1
*I *374:C1 I *D sky130_fd_sc_hd__o211a_1
*I *362:C1 I *D sky130_fd_sc_hd__o211a_1
*I *305:A I *D sky130_fd_sc_hd__inv_2
*I *312:A I *D sky130_fd_sc_hd__or2b_1
*I *329:B1 I *D sky130_fd_sc_hd__a21o_1
*I *343:C1 I *D sky130_fd_sc_hd__o211a_1
*I *352:C1 I *D sky130_fd_sc_hd__o211a_1
*I *405:X O *D sky130_fd_sc_hd__buf_2
*CAP
1 *309:A0 0.000651897
2 *384:B2 0
3 *383:A 0.000328403
4 *374:C1 0
5 *362:C1 0
6 *305:A 0.00014366
7 *312:A 7.13751e-05
8 *329:B1 0.000850187
9 *343:C1 0.000402702
10 *352:C1 0.000663746
11 *405:X 0.000340655
12 *122:136 0.00125655
13 *122:81 0.000636792
14 *122:47 0.00135417
15 *122:45 0.00151208
16 *122:22 0.00201759
17 *122:16 0.000842651
18 *122:10 0.000681032
19 *122:8 0.000531581
20 *122:6 0.000945305
21 *309:A0 *421:A 5.66472e-05
22 *329:B1 *330:B1 0.000170891
23 *329:B1 *419:A 9.67754e-05
24 *343:C1 *133:14 0.000139337
25 *343:C1 *133:36 3.15866e-05
26 *352:C1 *351:A2 0.000141864
27 *352:C1 *357:B1 0.000110652
28 *352:C1 *134:25 3.4846e-06
29 *352:C1 *134:45 8.75208e-05
30 *383:A *378:B 0.000209004
31 *122:10 *136:10 9.18193e-05
32 *122:10 *136:14 3.45899e-05
33 *122:16 *136:14 0.000195263
34 *307:B1 *309:A0 3.69047e-06
35 *313:A *312:A 6.05161e-06
36 *313:A *122:81 0.000117392
37 *314:B *122:81 0.000294122
38 *331:B1 *329:B1 3.69047e-06
39 *333:A1 *343:C1 1.00375e-05
40 *334:A_N *343:C1 3.90513e-05
41 *342:B1 *343:C1 7.35447e-05
42 *342:B1 *352:C1 3.67279e-06
43 *343:A1 *343:C1 3.11787e-05
44 *353:A1 *343:C1 4.23557e-05
45 *353:B1 *352:C1 0.000227843
46 *356:B *122:16 0.000181799
47 *356:B *122:22 2.16899e-05
48 *356:C *122:16 0
49 *358:A_N *352:C1 0.000138607
50 *358:A_N *122:16 0
51 *366:B *122:16 8.89326e-06
52 *369:B1_N *352:C1 9.96412e-05
53 *373:B1 *122:16 0
54 *379:B *383:A 7.11068e-05
55 *380:A2 *122:16 0
56 *381:B *383:A 0
57 *381:B *122:10 0
58 *382:A *383:A 0
59 *382:A *122:10 0
60 *382:A *122:136 0.000233198
61 *382:B *383:A 5.33005e-05
62 *384:A1 *309:A0 0.000753433
63 *384:A2 *309:A0 2.32275e-05
64 *384:B1 *309:A0 3.50746e-05
65 *384:C1 *309:A0 8.03659e-06
66 *384:C1 *383:A 5.50052e-05
67 *392:D *309:A0 0.000172352
68 *393:A *329:B1 2.07809e-05
69 *36:21 *305:A 2.00123e-05
70 *36:21 *122:81 0.00013688
71 *36:96 *305:A 8.46259e-06
72 *43:8 *122:81 1.8441e-05
73 *43:12 *122:81 2.5959e-05
74 *43:14 *343:C1 7.30326e-05
75 *43:14 *122:47 3.15432e-05
76 *43:14 *122:81 2.99751e-05
77 *54:10 *329:B1 7.58841e-05
78 *63:12 *343:C1 0.000146991
79 *82:14 *122:16 0
80 *95:12 *352:C1 0.000591308
81 *100:10 *383:A 7.74135e-05
82 *111:16 *343:C1 0.000219366
83 *115:16 *329:B1 9.15842e-06
84 *116:12 *352:C1 4.55219e-05
85 *116:72 *343:C1 3.48235e-05
86 *119:23 *122:16 0
87 *121:12 *352:C1 2.76148e-05
88 *121:81 *312:A 3.05522e-05
89 *121:91 *305:A 0.000147725
*RES
1 *405:X *122:6 13.1214 
2 *122:6 *122:8 4.5 
3 *122:8 *122:10 4.07143 
4 *122:10 *122:16 9.19643 
5 *122:16 *122:22 4.23825 
6 *122:22 *352:C1 41.0761 
7 *122:22 *122:45 5.33073 
8 *122:45 *122:47 1.49107 
9 *122:47 *343:C1 24.3 
10 *122:47 *329:B1 33.7286 
11 *122:45 *122:81 13.6339 
12 *122:81 *312:A 10.2464 
13 *122:81 *305:A 21.4607 
14 *122:16 *362:C1 13.8 
15 *122:10 *374:C1 13.8 
16 *122:8 *383:A 21.3 
17 *122:6 *122:136 18.8214 
18 *122:136 *384:B2 9.3 
19 *122:136 *309:A0 22.3536 
*END

*D_NET *123 0.00129081
*CONN
*I *414:A I *D sky130_fd_sc_hd__clkbuf_4
*I *385:Q O *D sky130_fd_sc_hd__dfxtp_1
*CAP
1 *414:A 0.000598029
2 *385:Q 0.000598029
3 result[0] *414:A 1.28171e-05
4 *385:D *414:A 8.1932e-05
*RES
1 *385:Q *414:A 35.6357 
*END

*D_NET *124 0.00330421
*CONN
*I *321:B1 I *D sky130_fd_sc_hd__a211o_1
*I *316:B1 I *D sky130_fd_sc_hd__o21a_1
*I *317:A I *D sky130_fd_sc_hd__or3_1
*I *406:X O *D sky130_fd_sc_hd__buf_1
*CAP
1 *321:B1 0.000348852
2 *316:B1 1.6563e-05
3 *317:A 0
4 *406:X 0.000659838
5 *124:23 0.000473552
6 *124:14 0.000767975
7 *321:B1 *315:A1 5.65955e-05
8 *315:B1 *321:B1 5.49489e-05
9 *317:B *124:14 5.50052e-05
10 *317:B *124:23 9.76435e-06
11 *317:C *316:B1 5.24378e-06
12 *317:C *321:B1 2.55889e-05
13 *317:C *124:23 0.000126649
14 *318:A_N *124:14 0.00011632
15 *319:A *124:14 0.00026969
16 *323:A1 *124:14 7.89362e-05
17 *323:A2 *321:B1 0
18 *323:A2 *124:14 5.66971e-05
19 *323:A2 *124:23 1.19813e-05
20 *395:A *321:B1 0.000121248
21 *41:10 *124:14 1.00887e-05
22 *45:6 *321:B1 5.74499e-06
23 *46:16 *124:14 3.29297e-05
*RES
1 *406:X *124:14 28.7107 
2 *124:14 *317:A 9.3 
3 *124:14 *124:23 2.5 
4 *124:23 *316:B1 9.72857 
5 *124:23 *321:B1 23.3714 
*END

*D_NET *125 0.000455217
*CONN
*I *415:A I *D sky130_fd_sc_hd__buf_2
*I *386:Q O *D sky130_fd_sc_hd__dfxtp_1
*CAP
1 *415:A 0.000227608
2 *386:Q 0.000227608
*RES
1 *386:Q *415:A 30.725 
*END

*D_NET *126 0.000992115
*CONN
*I *416:A I *D sky130_fd_sc_hd__buf_2
*I *387:Q O *D sky130_fd_sc_hd__dfxtp_1
*CAP
1 *416:A 0.000432838
2 *387:Q 0.000432838
3 result[2] *416:A 0
4 *398:A *416:A 0.000126439
*RES
1 *387:Q *416:A 34.6893 
*END

*D_NET *127 0.000284502
*CONN
*I *417:A I *D sky130_fd_sc_hd__buf_2
*I *388:Q O *D sky130_fd_sc_hd__dfxtp_1
*CAP
1 *417:A 0.000142251
2 *388:Q 0.000142251
*RES
1 *388:Q *417:A 21.1 
*END

*D_NET *128 0.000462231
*CONN
*I *418:A I *D sky130_fd_sc_hd__buf_2
*I *389:Q O *D sky130_fd_sc_hd__dfxtp_1
*CAP
1 *418:A 0.000204838
2 *389:Q 0.000204838
3 *418:A *133:10 2.41447e-05
4 result[4] *418:A 2.84109e-05
*RES
1 *389:Q *418:A 31.3143 
*END

*D_NET *129 0.00320106
*CONN
*I *419:A I *D sky130_fd_sc_hd__buf_2
*I *390:Q O *D sky130_fd_sc_hd__dfxtp_1
*CAP
1 *419:A 0.000660738
2 *390:Q 0.000660738
3 *325:A *419:A 7.44486e-05
4 *329:A1 *419:A 0.00039471
5 *329:A2 *419:A 0.000140243
6 *329:B1 *419:A 9.67754e-05
7 *330:A1 *419:A 5.65955e-05
8 *330:C1 *419:A 0.000314346
9 *331:B1 *419:A 6.92966e-06
10 *43:44 *419:A 4.20581e-05
11 *54:10 *419:A 0.000609972
12 *115:16 *419:A 0.000143505
*RES
1 *390:Q *419:A 35.1893 
*END

*D_NET *130 0.00132366
*CONN
*I *420:A I *D sky130_fd_sc_hd__clkbuf_4
*I *391:Q O *D sky130_fd_sc_hd__dfxtp_1
*CAP
1 *420:A 0.000491607
2 *391:Q 0.000491607
3 *420:A *421:A 5.107e-05
4 result[6] *420:A 8.44253e-05
5 result[7] *420:A 3.69047e-06
6 *309:S *420:A 0.000146261
7 *112:8 *420:A 5.49995e-05
*RES
1 *391:Q *420:A 36.4393 
*END

*D_NET *131 0.000309444
*CONN
*I *421:A I *D sky130_fd_sc_hd__clkbuf_4
*I *392:Q O *D sky130_fd_sc_hd__dfxtp_1
*CAP
1 *421:A 0.000100863
2 *392:Q 0.000100863
3 *309:A0 *421:A 5.66472e-05
4 *420:A *421:A 5.107e-05
*RES
1 *392:Q *421:A 29.475 
*END

*D_NET *132 0.00262449
*CONN
*I *339:A I *D sky130_fd_sc_hd__and2_1
*I *330:B1 I *D sky130_fd_sc_hd__a211o_1
*I *326:A I *D sky130_fd_sc_hd__xor2_1
*I *407:X O *D sky130_fd_sc_hd__buf_1
*CAP
1 *339:A 7.25552e-05
2 *330:B1 0.000299401
3 *326:A 0
4 *407:X 0.000313505
5 *132:10 0.000685461
6 *326:B *330:B1 5.33005e-05
7 *327:A *132:10 2.70242e-05
8 *328:B *132:10 0.000160268
9 *329:B1 *330:B1 0.000170891
10 *330:A1 *330:B1 1.00887e-05
11 *387:CLK *339:A 0.000116805
12 *393:A *339:A 0.000220657
13 *52:42 *132:10 5.49544e-05
14 *55:8 *132:10 0.000270947
15 *60:12 *330:B1 0.000168634
*RES
1 *407:X *132:10 16.4429 
2 *132:10 *326:A 9.3 
3 *132:10 *330:B1 24.7821 
4 *132:10 *339:A 21.1571 
*END

*D_NET *133 0.0030275
*CONN
*I *335:B1 I *D sky130_fd_sc_hd__a21o_1
*I *342:A2 I *D sky130_fd_sc_hd__a21o_1
*I *337:A I *D sky130_fd_sc_hd__and3_1
*I *343:A2 I *D sky130_fd_sc_hd__o211a_1
*I *408:X O *D sky130_fd_sc_hd__buf_1
*CAP
1 *335:B1 2.38287e-05
2 *342:A2 0.000127053
3 *337:A 0.000103482
4 *343:A2 2.22847e-05
5 *408:X 0.000215464
6 *133:36 0.000274139
7 *133:14 0.000239623
8 *133:10 0.000452579
9 *343:A1 *133:36 0.00015023
10 *343:B1 *335:B1 2.0305e-05
11 *343:B1 *342:A2 9.75679e-05
12 *343:B1 *133:14 5.65955e-05
13 *343:C1 *133:14 0.000139337
14 *343:C1 *133:36 3.15866e-05
15 *344:A1 *133:10 0.000173015
16 *353:A1 *133:14 5.33005e-05
17 *408:A *133:10 5.30637e-06
18 *418:A *133:10 2.41447e-05
19 *36:44 *133:10 2.22419e-05
20 *36:44 *133:36 4.19606e-05
21 *63:12 *133:10 0.00014852
22 *63:12 *133:36 0.000160667
23 *75:18 *335:B1 8.58815e-05
24 *75:18 *342:A2 0.000192362
25 *111:16 *337:A 0.000125832
26 *111:16 *133:14 4.01923e-05
*RES
1 *408:X *133:10 18.5143 
2 *133:10 *133:14 7.08929 
3 *133:14 *343:A2 9.72857 
4 *133:14 *337:A 11.4786 
5 *133:10 *133:36 8.01786 
6 *133:36 *342:A2 12.7286 
7 *133:36 *335:B1 10.4429 
*END

*D_NET *134 0.00330919
*CONN
*I *359:B2 I *D sky130_fd_sc_hd__a32o_1
*I *369:A1 I *D sky130_fd_sc_hd__a21bo_1
*I *351:A2 I *D sky130_fd_sc_hd__a21o_1
*I *352:A2 I *D sky130_fd_sc_hd__o211a_1
*I *347:A I *D sky130_fd_sc_hd__xor2_1
*I *409:X O *D sky130_fd_sc_hd__dlymetal6s2s_1
*CAP
1 *359:B2 4.93552e-05
2 *369:A1 0
3 *351:A2 0.000225847
4 *352:A2 0
5 *347:A 9.17364e-06
6 *409:X 0.000192867
7 *134:45 0.000175204
8 *134:32 0.000363236
9 *134:25 0.000162686
10 *134:12 0.000353186
11 *342:B1 *347:A 5.49995e-05
12 *342:B1 *134:12 0.000226867
13 *352:A1 *351:A2 6.75989e-05
14 *352:A1 *134:32 1.02301e-05
15 *352:A1 *134:45 2.84109e-05
16 *352:B1 *351:A2 0.000140908
17 *352:B1 *134:32 3.50746e-05
18 *352:C1 *351:A2 0.000141864
19 *352:C1 *134:25 3.4846e-06
20 *352:C1 *134:45 8.75208e-05
21 *353:B1 *359:B2 0.000226274
22 *353:B1 *134:45 0.000227843
23 *359:B1 *359:B2 0.000181107
24 *369:B1_N *134:45 5.49489e-05
25 *73:21 *347:A 5.66971e-05
26 *73:21 *134:12 0.000215331
27 *117:25 *351:A2 1.84776e-05
*RES
1 *409:X *134:12 23.0321 
2 *134:12 *347:A 9.83571 
3 *134:12 *134:25 11.25 
4 *134:25 *352:A2 9.3 
5 *134:25 *134:32 0.428571 
6 *134:32 *351:A2 14.2821 
7 *134:32 *134:45 3.82143 
8 *134:45 *369:A1 9.3 
9 *134:45 *359:B2 11.4786 
*END

*D_NET *135 0.00379501
*CONN
*I *356:A I *D sky130_fd_sc_hd__nor3_1
*I *357:B1 I *D sky130_fd_sc_hd__o21ai_1
*I *362:A2 I *D sky130_fd_sc_hd__o211a_1
*I *361:A2 I *D sky130_fd_sc_hd__a21o_1
*I *410:X O *D sky130_fd_sc_hd__buf_1
*CAP
1 *356:A 0.000189432
2 *357:B1 0.000204076
3 *362:A2 1.84617e-05
4 *361:A2 1.91201e-05
5 *410:X 0.000142768
6 *135:28 0.000431107
7 *135:17 0.000142494
8 *135:8 0.000248322
9 *352:C1 *357:B1 0.000110652
10 *356:B *356:A 2.59355e-05
11 *356:C *356:A 0.000325045
12 *356:C *357:B1 0.000144001
13 *357:A2 *357:B1 5.66283e-05
14 *358:A_N *356:A 0.000261086
15 *358:A_N *357:B1 0.000172726
16 *361:B1 *361:A2 3.41517e-06
17 *361:B1 *135:8 5.20751e-05
18 *361:B1 *135:17 6.73452e-05
19 *362:A1 *362:A2 1.00733e-05
20 *362:A1 *135:17 4.08556e-05
21 *362:A1 *135:28 1.30607e-05
22 *362:B1 *362:A2 1.00733e-05
23 *362:B1 *135:17 7.57394e-05
24 *369:B1_N *357:B1 0.000129575
25 *380:A2 *135:8 0.000140907
26 *380:A2 *135:17 9.83388e-05
27 *43:44 *135:17 0.000297967
28 *43:44 *135:28 9.58126e-05
29 *60:20 *357:B1 7.49267e-05
30 *82:6 *356:A 0.000143375
31 *118:37 *135:8 1.21258e-05
32 *121:74 *356:A 3.74869e-05
*RES
1 *410:X *135:8 12.3179 
2 *135:8 *361:A2 9.72857 
3 *135:8 *135:17 3.82143 
4 *135:17 *362:A2 9.72857 
5 *135:17 *135:28 5.44643 
6 *135:28 *357:B1 20.1393 
7 *135:28 *356:A 19.6571 
*END

*D_NET *136 0.00277009
*CONN
*I *367:A I *D sky130_fd_sc_hd__or2_1
*I *374:A2 I *D sky130_fd_sc_hd__o211a_1
*I *366:A I *D sky130_fd_sc_hd__nand2_1
*I *373:A2 I *D sky130_fd_sc_hd__a21o_1
*I *411:X O *D sky130_fd_sc_hd__buf_1
*CAP
1 *367:A 0.000186273
2 *374:A2 2.00462e-05
3 *366:A 0.000126974
4 *373:A2 0.000107524
5 *411:X 0.000435816
6 *136:36 0.000266101
7 *136:14 0.000316109
8 *136:10 0.000577208
9 *366:B *136:14 2.4741e-05
10 *367:B *367:A 5.35532e-05
11 *373:A1 *373:A2 3.08664e-05
12 *373:B1 *366:A 0
13 *373:B1 *373:A2 3.28073e-05
14 *374:A1 *367:A 1.59373e-05
15 *374:A1 *374:A2 1.02132e-05
16 *374:A1 *136:36 3.04394e-05
17 *374:B1 *136:14 0.000147921
18 *380:A2 *373:A2 3.50166e-05
19 *91:6 *366:A 3.08664e-05
20 *122:10 *136:10 9.18193e-05
21 *122:10 *136:14 3.45899e-05
22 *122:16 *136:14 0.000195263
*RES
1 *411:X *136:10 19.3714 
2 *136:10 *136:14 7.35714 
3 *136:14 *373:A2 11.4964 
4 *136:14 *366:A 11.4964 
5 *136:10 *136:36 5.44643 
6 *136:36 *374:A2 9.72857 
7 *136:36 *367:A 12.3 
*END

*D_NET *137 0.00148338
*CONN
*I *378:B I *D sky130_fd_sc_hd__nor2_1
*I *376:B I *D sky130_fd_sc_hd__and2_1
*I *412:X O *D sky130_fd_sc_hd__clkbuf_1
*CAP
1 *378:B 0.000307361
2 *376:B 0
3 *412:X 0.000230504
4 *137:8 0.000537866
5 *376:A *137:8 5.49544e-05
6 *379:B *378:B 5.03945e-05
7 *383:A *378:B 0.000209004
8 *383:B *378:B 8.54714e-05
9 *30:10 *378:B 4.13122e-06
10 *100:10 *378:B 3.69047e-06
*RES
1 *412:X *137:8 13.0321 
2 *137:8 *376:B 9.3 
3 *137:8 *378:B 24.8893 
*END

*D_NET *138 0.00611187
*CONN
*I *311:B_N I *D sky130_fd_sc_hd__or2b_1
*I *307:A2 I *D sky130_fd_sc_hd__o21a_1
*I *315:A1 I *D sky130_fd_sc_hd__a21oi_1
*I *314:A I *D sky130_fd_sc_hd__and3_1
*I *332:A I *D sky130_fd_sc_hd__or3_2
*I *324:A1 I *D sky130_fd_sc_hd__o21a_1
*I *308:B I *D sky130_fd_sc_hd__nand2_1
*I *413:X O *D sky130_fd_sc_hd__dlymetal6s2s_1
*CAP
1 *311:B_N 2.84356e-05
2 *307:A2 2.98977e-05
3 *315:A1 6.49305e-05
4 *314:A 0.000169243
5 *332:A 0.000104804
6 *324:A1 0.000110168
7 *308:B 8.21597e-05
8 *413:X 0.000370937
9 *138:77 8.07187e-05
10 *138:39 0.000277961
11 *138:35 0.000322542
12 *138:33 0.000330656
13 *138:20 0.000486973
14 *138:10 0.00062272
15 *308:A *307:A2 5.33005e-05
16 *308:A *308:B 3.22063e-05
17 *308:A *138:20 0.000267731
18 *308:A *138:77 0
19 *309:A1 *308:B 3.30237e-05
20 *310:A *138:10 0.0004433
21 *314:B *314:A 1.07719e-05
22 *314:C *314:A 0.000126435
23 *315:A2 *315:A1 9.58181e-05
24 *315:A2 *138:35 4.37542e-05
25 *321:B1 *315:A1 5.65955e-05
26 *332:C *324:A1 0
27 *385:D *138:10 5.66971e-05
28 *394:A *138:39 0.000128161
29 *395:A *138:33 0.000310112
30 *395:A *138:35 0.000267722
31 *395:A *138:39 2.31791e-05
32 *36:38 *324:A1 5.75147e-05
33 *36:38 *138:39 5.83233e-05
34 *37:40 *138:33 0
35 *43:8 *138:35 8.48601e-05
36 *43:8 *138:39 1.52978e-05
37 *43:10 *138:39 3.25078e-05
38 *44:10 *314:A 3.55552e-05
39 *60:12 *332:A 5.45307e-05
40 *112:8 *138:10 4.82947e-05
41 *112:34 *138:10 0.000159072
42 *113:12 *138:10 0.000174667
43 *113:12 *138:20 7.26502e-05
44 *113:16 *307:A2 1.24368e-05
45 *113:16 *311:B_N 4.08637e-05
46 *114:39 *138:20 0
47 *114:45 *324:A1 0.000181803
48 *114:45 *332:A 5.25368e-05
*RES
1 *413:X *138:10 23.5679 
2 *138:10 *138:20 8.78571 
3 *138:20 *308:B 10.9786 
4 *138:20 *138:33 8.57143 
5 *138:33 *138:35 3.46429 
6 *138:35 *138:39 6.44643 
7 *138:39 *324:A1 11.9071 
8 *138:39 *332:A 11.4786 
9 *138:35 *314:A 16.8 
10 *138:33 *315:A1 15.1571 
11 *138:10 *138:77 4.92857 
12 *138:77 *307:A2 9.83571 
13 *138:77 *311:B_N 9.83571 
*END
